71
Converted from 2P3_3ea.out; final Standard orientation
C   0.69789900 -0.06603000 -1.98719300
H   1.29769800  0.48931300 -2.72246700
C  -0.62812400  0.69636300 -1.79577400
H  -0.36794800  1.68668600 -1.39148000
P   1.58811400  0.04140000 -0.34046400
P  -1.54235800  0.02087400 -0.29486400
C   2.16071500  1.79155200 -0.39242000
C   1.37833700  2.78504900  0.20499400
C   3.32909100  2.16816300 -1.06522100
C   1.74481100  4.12556300  0.12279300
H   0.48037500  2.49737700  0.74254600
C   3.70038100  3.50729500 -1.13978300
H   3.96044700  1.41248300 -1.52326200
C   2.90829400  4.48968200 -0.54912100
H   1.12300400  4.88253300  0.59274100
H   4.61443100  3.78327700 -1.65863000
H   3.20128700  5.53430900 -0.60743700
C   3.16425400 -0.86129900 -0.54245400
C   3.85167400 -1.19853300  0.62954400
C   3.74660500 -1.16428300 -1.77905900
C   5.08503600 -1.83978700  0.56826500
H   3.41533400 -0.94300400  1.59182800
C   4.97713500 -1.81329300 -1.83967600
H   3.25120500 -0.88129900 -2.70337400
C   5.64573700 -2.15609400 -0.66688400
H   5.60661300 -2.09468000  1.48648200
H   5.41600800 -2.04608700 -2.80592700
H   6.60480500 -2.66398200 -0.71608200
C  -2.72589400  1.38680200  0.03665900
C  -3.89241900  1.54621000 -0.72191000
C  -2.44496700  2.30642500  1.05017800
C  -4.74384500  2.62138300 -0.48743300
H  -4.14522400  0.81573000 -1.48593700
C  -3.29641500  3.38372100  1.28373700
H  -1.56610900  2.15328400  1.67088300
C  -4.44398400  3.54556900  0.51201200
H  -5.64672500  2.73423400 -1.08149500
H  -3.06873900  4.08842900  2.07892900
H  -5.11188600  4.38236300  0.69733200
C  -2.71779200 -1.31825700 -0.73679500
C  -3.49309700 -1.80244300  0.32823200
C  -2.88032000 -1.90116200 -1.99557300
C  -4.40944100 -2.82788200  0.13543800
H  -3.36100400 -1.37462700  1.31920800
C  -3.79460100 -2.93743800 -2.18730800
H  -2.29393500 -1.56267100 -2.83929200
C  -4.56302100 -3.40215000 -1.12650500
H  -4.99962300 -3.18620900  0.97442600
H  -3.90262000 -3.37808700 -3.17477400
H  -5.27428500 -4.20927300 -1.27778300
Rh  0.02807300 -0.52917500  1.30905900
H  -1.22091000 -0.87651100  2.22767100
C   0.47357800  0.70126800  2.65122000
O   0.72355800  1.40116800  3.54221600
C   0.83614800 -2.40950600  2.09761500
H   1.92186300 -2.38927400  2.01808400
C   0.12084300 -2.68155800  0.91372500
H   0.67202700 -2.90717100  0.00409200
H  -0.87368100 -3.12165700  0.96762000
C   0.32830000 -2.80513900  3.46041600
H   0.65434300 -2.10614300  4.23786000
H  -0.76593700 -2.83730000  3.47742600
H   0.70327900 -3.80313300  3.73232300
C   0.48994400 -1.50009500 -2.46478800
H   0.04410000 -1.50660700 -3.46569700
H   1.42680800 -2.05945300 -2.51976200
H  -0.17799800 -2.04366700 -1.79199200
C  -1.38059300  0.96787500 -3.09493600
H  -0.77322600  1.61946500 -3.73422600
H  -1.60403900  0.06652100 -3.66912200
H  -2.32344600  1.48646000 -2.89811400
