74
Converted from 2P4_3ea.out; final Standard orientation
C  -1.17458900  0.08226000  2.28815900
H  -1.08856100 -0.97620700  2.56363900
C   0.18205300  0.76376500  2.52929900
H   0.18256000  1.74055300  2.02731000
H   0.23288900  0.98530900  3.60519900
C   1.45688000 -0.02192000  2.18548400
H   2.30373000  0.53464800  2.61018100
P  -1.60124500  0.06197600  0.47469400
P   1.75332400 -0.14128500  0.35320400
Rh -0.00545100 -0.95310900 -0.91633400
H   1.09848600 -1.68399000 -1.79358900
C  -0.30554000  0.09523300 -2.44391800
O  -0.46797800  0.68145300 -3.43010600
C  -3.22552900 -0.77149300  0.40398400
C  -4.04083800 -0.54164100 -0.71320200
C  -3.61072400 -1.74756900  1.32819200
C  -5.22234800 -1.25261200 -0.88619100
H  -3.74161200  0.19533300 -1.45444900
C  -4.79320500 -2.46387600  1.15052000
H  -2.99269600 -1.95939000  2.19577400
C  -5.60287700 -2.21673400  0.04683600
H  -5.84454800 -1.05840700 -1.75537700
H  -5.07828100 -3.21737500  1.87947300
H  -6.52399200 -2.77592400 -0.09055200
C  -2.00667200  1.81663300  0.14107400
C  -1.02246700  2.63144900 -0.42762200
C  -3.23999100  2.38523000  0.48695700
C  -1.25616100  3.98865500 -0.63391500
H  -0.07021600  2.19954900 -0.71639900
C  -3.47719300  3.73848000  0.26820100
H  -4.02182900  1.76612800  0.91716400
C  -2.48448100  4.54408000 -0.28825100
H  -0.47554000  4.60319900 -1.07353500
H  -4.44075200  4.16516700  0.53321100
H  -2.67334000  5.60071600 -0.45734000
C   2.32069400  1.54808400 -0.10861600
C   2.53797300  1.78331300 -1.47336500
C   2.50203100  2.60461800  0.78884800
C   2.91856200  3.03971900 -1.92847000
H   2.38766700  0.97228500 -2.18149000
C   2.86963700  3.86978100  0.33105700
H   2.34881700  2.46110700  1.85374400
C   3.07685700  4.09192800 -1.02631900
H   3.08088900  3.20108900 -2.99058000
H   2.99237700  4.68227300  1.04217100
H   3.35990500  5.07880500 -1.38178700
C   3.35271200 -1.04583200  0.33404600
C   3.41493600 -2.35189100 -0.15496900
C   4.50939000 -0.45935300  0.86181800
C   4.61038100 -3.06622100 -0.10972800
H   2.51923000 -2.79532800 -0.57963900
C   5.70316800 -1.17167500  0.90526900
H   4.47989900  0.56437800  1.22746800
C   5.75499300 -2.47841100  0.42133300
H   4.64695800 -4.08139800 -0.49570600
H   6.59640900 -0.70498900  1.31186400
H   6.68877100 -3.03322300  0.45302600
C  -1.14612700 -2.76366000 -1.25371300
H  -2.20372400 -2.52177300 -1.15664300
C  -0.40920900 -2.91232500 -0.05120200
H  -0.93132400 -2.85235000  0.90308100
H   0.45891800 -3.56955800 -0.03414800
C  -0.81316800 -3.54964300 -2.49608100
H  -1.36923800 -4.49915000 -2.50941300
H   0.25601000 -3.78235900 -2.54192800
H  -1.07405000 -3.00088000 -3.40724700
C  -2.23724200  0.74284000  3.16283500
H  -1.99043100  0.59405700  4.22095000
H  -2.27830300  1.82107000  2.97618400
H  -3.23593200  0.33238000  2.98743500
C   1.47099500 -1.41769400  2.80598700
H   2.47373300 -1.85208100  2.76757100
H   1.16052100 -1.36685900  3.85702800
H   0.79712800 -2.09998300  2.27872600
