97
EV2 (P4) 3ea; extracted from final Gaussian last_standard_orientation
C   3.8630390000  3.5894310000 -0.0738120000
C   4.2511660000  2.5463390000  0.7944520000
C   3.7091060000  1.2763520000  0.6742270000
C   2.7401910000  0.9767350000 -0.2905240000
C   2.3597310000  2.0099670000 -1.1526030000
C   2.8965170000  3.2838250000 -1.0558890000
P   1.9645760000 -0.6667940000 -0.5132440000
C   3.0499250000 -2.1812760000 -2.6576260000
C   3.2934070000 -1.5812400000 -1.4221130000
C   4.5776940000 -1.6808040000 -0.8696800000
C   5.5884960000 -2.3608120000 -1.5376960000
C   5.3330200000 -2.9565100000 -2.7729310000
C   4.0626640000 -2.8644620000 -3.3304620000
C   2.1376250000 -1.4527460000  1.1375490000
C   1.9722540000 -0.7365810000  2.3292610000
C   1.9984380000 -1.3920290000  3.5582130000
C   2.1807970000 -2.7711060000  3.6182110000
C   2.3366170000 -3.4949040000  2.4364200000
C   2.3149360000 -2.8421200000  1.2081870000
Rh -0.1898550000 -0.7605480000 -1.4616200000
C   0.3384380000  2.5800560000  3.4956790000
C  -0.4170990000  1.5068260000  3.9632710000
C  -1.0144560000  0.6245010000  3.0651060000
C  -0.8587580000  0.8102140000  1.6888420000
C  -0.1184280000  1.9042680000  1.2272080000
C   0.4804160000  2.7827810000  2.1232790000
P  -1.5489930000 -0.3211990000  0.4236280000
C  -3.8336860000  1.2649510000  0.9289180000
C  -3.1259430000  0.4908510000  0.0017010000
C  -3.7047310000  0.2984480000 -1.2575370000
C  -4.9354040000  0.8464590000 -1.5827990000
C  -5.6535330000  1.6233620000 -0.6484790000
C  -5.0609930000  1.8264950000  0.6177840000
C  -2.1024540000 -1.7756490000  1.3925120000
C  -3.4385040000 -2.1884980000  1.4055820000
C  -3.8133710000 -3.3396510000  2.0960130000
C  -2.8618750000 -4.0864160000  2.7849700000
C  -1.5282730000 -3.6807410000  2.7764740000
C  -1.1496410000 -2.5395830000  2.0785270000
H   0.5468560000 -1.0346830000 -2.8370480000
C  -0.7069480000  0.8008430000 -2.3435710000
O  -0.9804670000  1.7391070000 -2.9706050000
H   4.9813950000  2.7261930000  1.5751490000
H   4.0361390000  0.5136500000  1.3747640000
H   1.6076750000  1.8131230000 -1.9113710000
H   2.5527120000  4.0456220000 -1.7460430000
H   2.0569860000 -2.1076800000 -3.0906800000
H   4.7890880000 -1.2280830000  0.0944410000
H   6.5783100000 -2.4272400000 -1.0938770000
H   6.1231200000 -3.4892400000 -3.2953330000
H   3.8525840000 -3.3252340000 -4.2920690000
H   1.8160000000  0.3364280000  2.3021910000
H   1.8640390000 -0.8160440000  4.4696390000
H   2.1992330000 -3.2800600000  4.5780570000
H   2.4761330000 -4.5721170000  2.4695700000
H   2.4379220000 -3.4146380000  0.2932780000
H   0.8165900000  3.2564090000  4.1991620000
H  -0.5362030000  1.3485980000  5.0319530000
H  -1.5853980000 -0.2212170000  3.4365070000
H   0.0155310000  2.0473200000  0.1597700000
H   1.0785490000  3.6068950000  1.7444600000
H  -3.4133250000  1.4425170000  1.9153510000
H  -3.1708870000 -0.2880590000 -2.0003330000
H  -5.3324880000  0.6775560000 -2.5770830000
H  -5.5597350000  2.4331850000  1.3648520000
H  -4.1888570000 -1.6064700000  0.8788710000
H  -4.8550850000 -3.6492290000  2.0965730000
H  -3.1571980000 -4.9821140000  3.3247480000
H  -0.7736070000 -4.2542100000  3.3078070000
H  -0.1086420000 -2.2372260000  2.0701220000
C  -1.4428850000 -2.4698520000 -1.9803640000
C  -0.2882580000 -2.9272120000 -1.3029530000
H  -2.3632180000 -2.4304350000 -1.3940300000
H   0.5041060000 -3.4104870000 -1.8730100000
H  -0.3592600000 -3.2469780000 -0.2658230000
C  -1.6693490000 -2.7123030000 -3.4502810000
H  -2.1918790000 -3.6675680000 -3.6098530000
H  -0.7179230000 -2.7500710000 -3.9909030000
H  -2.2781770000 -1.9232430000 -3.9060360000
C  -7.5002160000  3.0885190000 -0.0422650000
H  -7.6903060000  2.6191060000  0.9307530000
H  -6.8872940000  3.9870610000  0.1258060000
H  -8.4620790000  3.4026010000 -0.4503970000
C  -7.3731490000  2.0718990000 -2.3108220000
H  -6.7145270000  2.5777770000 -3.0328960000
H  -7.4827390000  1.0265930000 -2.6241610000
H  -8.3589720000  2.5367190000 -2.3626070000
N  -6.8793390000  2.1595930000 -0.9566770000
N   4.4047030000  4.8482110000  0.0320300000
C   3.8443930000  5.9270360000 -0.7472000000
C   5.2370640000  5.1679050000  1.1672410000
H   3.9256620000  5.7209290000 -1.8208890000
H   2.7838580000  6.1104810000 -0.5144580000
H   4.4031850000  6.8420410000 -0.5441740000
H   4.7052770000  5.0590630000  2.1254490000
H   6.1265950000  4.5274090000  1.1975860000
H   5.5782970000  6.2007360000  1.0806020000
