73
EV3 (P22) 3ea; extracted from final Gaussian last_standard_orientation
C   1.9803090000  3.9334380000 -1.9920900000
C   1.9018040000  3.9726380000 -0.6046170000
C   1.8306370000  2.7905520000  0.1303300000
C   1.8389550000  1.5533720000 -0.5158900000
C   1.9027830000  1.5239540000 -1.9162500000
C   1.9765970000  2.7022200000 -2.6481910000
P   1.7488470000 -0.0608750000  0.3446230000
C   3.6915980000 -2.0761350000  0.1684210000
C   3.4503590000 -0.7028960000  0.0631990000
C   4.5276370000  0.1532730000 -0.1952680000
C   5.8147710000 -0.3550620000 -0.3457950000
C   6.0453980000 -1.7239750000 -0.2309230000
C   4.9807310000 -2.5831680000  0.0290350000
Rh -0.0138560000 -1.4661350000 -0.2570660000
C  -1.2960660000  4.4146790000  0.4475160000
C  -1.2692550000  3.8009530000  1.6948270000
C  -1.4051410000  2.4164170000  1.7977050000
C  -1.5689510000  1.6337000000  0.6518950000
C  -1.5609010000  2.2597720000 -0.6020430000
C  -1.4346020000  3.6383880000 -0.7027510000
P  -1.7620330000 -0.1859820000  0.6846490000
C  -4.3870020000  0.5853130000 -0.0697310000
C  -3.3771410000 -0.3802980000 -0.1721370000
C  -3.6159910000 -1.5324030000 -0.9271510000
C  -4.8434530000 -1.7237580000 -1.5570290000
C  -5.8428420000 -0.7614780000 -1.4453750000
C  -5.6108240000  0.3953650000 -0.7030540000
H   1.0815070000 -2.3985340000 -0.9228790000
C  -0.4918580000 -1.0867800000 -2.0298090000
O  -0.7118210000 -0.8722810000 -3.1477530000
H   2.0362110000  4.8562420000 -2.5631130000
H   1.8856230000  4.9266400000 -0.0848340000
H   1.7495630000  2.8484190000  1.2101570000
H   1.8934800000  0.5664180000 -2.4313480000
H   2.0282900000  2.6604730000 -3.7327850000
H   2.8571910000 -2.7480400000  0.3420540000
H   4.3591380000  1.2224810000 -0.2855540000
H   6.6391750000  0.3216200000 -0.5543160000
H   7.0502250000 -2.1199320000 -0.3505460000
H   5.1501720000 -3.6534630000  0.1111890000
H  -1.1965170000  5.4935990000  0.3679510000
H  -1.1521060000  4.3972530000  2.5957520000
H  -1.3948120000  1.9574800000  2.7820430000
H  -1.6580230000  1.6582840000 -1.5022340000
H  -1.4275870000  4.1071690000 -1.6822180000
H  -4.2101210000  1.4955350000  0.4959470000
H  -2.8212710000 -2.2649970000 -1.0344920000
H  -5.0123670000 -2.6218220000 -2.1448640000
H  -6.7980380000 -0.9062800000 -1.9427060000
H  -6.3836890000  1.1547340000 -0.6204830000
C  -0.8534470000 -3.3107530000  0.5154010000
C   0.1483790000 -2.8333770000  1.4043270000
H  -1.8918790000 -3.1541150000  0.8163950000
H   1.1036450000 -3.3546910000  1.4410030000
H  -0.1317040000 -2.3783940000  2.3523770000
C  -0.6588360000 -4.5519340000 -0.3177660000
H  -0.9881160000 -5.4478330000  0.2301720000
H   0.3958290000 -4.6817460000 -0.5816450000
H  -1.2288570000 -4.5067850000 -1.2525640000
C  -2.1768600000 -0.5755850000  2.4457600000
C  -3.4686410000 -0.0089060000  3.0204980000
H  -1.3042440000 -0.2725450000  3.0392200000
H  -2.1996530000 -1.6703660000  2.4952200000
H  -3.5619120000 -0.2861570000  4.0764570000
H  -3.5082760000  1.0827280000  2.9547390000
H  -4.3393120000 -0.4044190000  2.4898230000
C   1.7960350000  0.3685050000  2.1484450000
C   3.0955340000  0.9166740000  2.7242040000
H   1.5206770000 -0.5625850000  2.6570220000
H   0.9598470000  1.0612220000  2.3096610000
H   2.9626250000  1.1738640000  3.7814880000
H   3.8963480000  0.1749060000  2.6546470000
H   3.4365010000  1.8145660000  2.2000240000
