68
LPP2 3ee; extracted from final Gaussian last_standard_orientation
C   1.1938690000  0.0888080000 -2.3224380000
H   1.1348960000 -0.9486670000 -2.6731440000
H   2.0011760000  0.5780000000 -2.8800810000
C  -0.1285260000  0.8139820000 -2.5985740000
H  -0.1038390000  1.8009820000 -2.1193410000
H  -0.1766850000  1.0064820000 -3.6777080000
C  -1.4138480000  0.0685340000 -2.2144880000
H  -1.3758140000 -0.9607460000 -2.5951010000
H  -2.2763320000  0.5399680000 -2.7021890000
P   1.6274980000  0.0517450000 -0.5194140000
P  -1.7412320000 -0.1128000000 -0.4010130000
Rh  0.0417610000 -1.1244350000  0.6658860000
H  -0.0133370000  0.1086110000  1.6771940000
C   0.0757650000 -2.6793790000 -0.4246730000
O   0.1050660000 -3.6440660000 -1.0626250000
C   3.3168850000 -0.6503430000 -0.5119180000
C   4.3512580000 -0.0717430000  0.2317250000
C   3.5536100000 -1.8673510000 -1.1645120000
C   5.5978270000 -0.6886630000  0.3073950000
H   4.1837250000  0.8670080000  0.7518690000
C   4.8017270000 -2.4764070000 -1.0959130000
H   2.7546900000 -2.3536970000 -1.7186010000
C   5.8289500000 -1.8886290000 -0.3590270000
H   6.3904460000 -0.2264660000  0.8896590000
H   4.9704820000 -3.4164260000 -1.6142120000
H   6.8022970000 -2.3676570000 -0.3012700000
C   1.9045810000  1.8407940000 -0.2283580000
C   1.1196360000  2.5350780000  0.6931030000
C   2.8440680000  2.5503290000 -0.9907540000
C   1.2595220000  3.9131160000  0.8483740000
H   0.3905700000  1.9869550000  1.2801750000
C   2.9909850000  3.9231440000 -0.8294550000
H   3.4731890000  2.0252680000 -1.7054270000
C   2.1942880000  4.6083600000  0.0885040000
H   0.6282210000  4.4377620000  1.5600730000
H   3.7262470000  4.4609960000 -1.4218120000
H   2.3056590000  5.6826610000  0.2083830000
C  -2.1942890000  1.5791070000  0.1421360000
C  -2.3278610000  1.8030110000  1.5184420000
C  -2.4045880000  2.6457060000 -0.7360040000
C  -2.6600500000  3.0623650000  2.0034220000
H  -2.1459170000  0.9826180000  2.2082380000
C  -2.7244810000  3.9124690000 -0.2493580000
H  -2.3131530000  2.5048810000 -1.8084060000
C  -2.8517130000  4.1244230000  1.1194890000
H  -2.7600960000  3.2185560000  3.0741170000
H  -2.8715210000  4.7339420000 -0.9452070000
H  -3.0987890000  5.1123220000  1.4983390000
C  -3.3761370000 -0.9478000000 -0.4343210000
C  -3.4845640000 -2.2380000000  0.0887100000
C  -4.5071740000 -0.3332940000 -0.9840950000
C  -4.7017920000 -2.9151520000  0.0461800000
H  -2.6063770000 -2.6933300000  0.5405490000
C  -5.7225770000 -1.0076800000 -1.0227990000
H  -4.4419290000  0.6819660000 -1.3685670000
C  -5.8201270000 -2.3018010000 -0.5111030000
H  -4.7765630000 -3.9191070000  0.4551610000
H  -6.5971190000 -0.5231830000 -1.4487340000
H  -6.7710840000 -2.8267520000 -0.5409390000
C   1.0628960000 -2.1086790000  2.2931880000
H   1.5867040000 -2.9856890000  1.9085420000
C  -0.3421850000 -2.2335110000  2.4862210000
H  -0.8325010000 -3.1859960000  2.2931960000
H  -0.8291600000 -1.6296980000  3.2496690000
C   1.9257830000 -1.2300880000  3.1612240000
H   2.3216750000 -1.7936560000  4.0197370000
H   1.3540060000 -0.3780210000  3.5441310000
H   2.7820030000 -0.8361840000  2.6023100000
