83
LPP6 3ee; extracted from final Gaussian last_standard_orientation
C   2.3262050000  3.0824140000 -0.4381070000
H   2.3933930000  2.5821120000 -1.4127470000
H   3.2777280000  3.6117470000 -0.3165990000
C   2.1904610000  2.0517510000  0.7000070000
H   1.3062760000  2.2752660000  1.3089940000
H   3.0562550000  2.1176150000  1.3686840000
P  -1.9508230000  0.0612000000 -0.4232240000
P   2.0717950000  0.2612460000  0.1691510000
Rh  0.1635630000 -0.8867420000 -0.5114810000
H   0.3040300000 -0.0484610000 -1.8775460000
C   0.0184000000 -1.8485330000  1.1198880000
O  -0.0654990000 -2.4325810000  2.1126600000
C  -3.3429250000 -1.1322440000 -0.6220110000
C  -4.4398570000 -0.9199400000 -1.4632650000
C  -3.3049220000 -2.3103650000  0.1356140000
C  -5.4627100000 -1.8637580000 -1.5541270000
H  -4.5169300000 -0.0119260000 -2.0531210000
C  -4.3270370000 -3.2482220000  0.0521290000
H  -2.4652630000 -2.4940620000  0.7990610000
C  -5.4091910000 -3.0306560000 -0.7995660000
H  -6.3042470000 -1.6796730000 -2.2166640000
H  -4.2754280000 -4.1543010000  0.6497150000
H  -6.2051880000 -3.7664810000 -0.8722560000
C  -2.4525100000  0.8153230000  1.1801550000
C  -1.4543050000  1.1883520000  2.0833140000
C  -3.7917560000  1.0389170000  1.5213000000
C  -1.7773680000  1.8140080000  3.2842230000
H  -0.4207420000  0.9681500000  1.8290530000
C  -4.1168180000  1.6643400000  2.7207850000
H  -4.5830360000  0.7183180000  0.8494780000
C  -3.1105320000  2.0618810000  3.6004930000
H  -0.9888640000  2.0996910000  3.9756020000
H  -5.1594390000  1.8378420000  2.9731790000
H  -3.3678920000  2.5489910000  4.5370230000
C   2.7704350000 -0.5766850000  1.6435130000
C   3.4217970000 -1.8076060000  1.4898410000
C   2.5439480000 -0.0923850000  2.9351730000
C   3.8440970000 -2.5284620000  2.6005470000
H   3.5977140000 -2.1984540000  0.4909510000
C   2.9612310000 -0.8193910000  4.0486220000
H   2.0291870000  0.8528740000  3.0843690000
C   3.6126740000 -2.0377410000  3.8852080000
H   4.3528280000 -3.4789200000  2.4636340000
H   2.7742730000 -0.4296550000  5.0456310000
H   3.9376120000 -2.6044180000  4.7532420000
C   3.4912730000  0.2174270000 -0.9983190000
C   3.2607590000  0.1153260000 -2.3723020000
C   4.8061800000  0.3693400000 -0.5413050000
C   4.3219700000  0.1569680000 -3.2743020000
H   2.2386740000  0.0021370000 -2.7231760000
C   5.8666700000  0.4039640000 -1.4409590000
H   5.0029670000  0.4508690000  0.5246600000
C   5.6267580000  0.2969970000 -2.8101530000
H   4.1272270000  0.0750300000 -4.3402940000
H   6.8830580000  0.5152490000 -1.0727380000
H   6.4561300000  0.3224220000 -3.5117690000
C  -0.3066890000 -2.5805290000 -1.8206600000
H  -0.8870500000 -3.2935330000 -1.2330240000
C   1.0875200000 -2.5360220000 -1.6013080000
H   1.5524140000 -3.2277430000 -0.9020540000
H   1.7448880000 -2.1876520000 -2.3946890000
C  -0.9209700000 -2.2524720000 -3.1559830000
H  -1.0027720000 -3.1573070000 -3.7762450000
H  -0.3123160000 -1.5201410000 -3.6967550000
H  -1.9307640000 -1.8419480000 -3.0474070000
C  -3.2028770000  2.5289040000 -1.4844700000
H  -4.1721600000  2.1931420000 -1.0928300000
H  -3.4169530000  2.9838550000 -2.4628030000
C  -2.3002230000  1.3205260000 -1.7471080000
H  -2.6978060000  0.7303580000 -2.5818120000
H  -1.3168730000  1.6414280000 -2.0811770000
C   1.1742790000  4.0826600000 -0.4880440000
H   1.0563510000  4.5699790000  0.4911260000
H   1.4118410000  4.8792980000 -1.2064060000
C  -0.1210490000  3.3947250000 -0.8873650000
H   0.0561690000  2.9103410000 -1.8551540000
H  -0.3114770000  2.5745010000 -0.1817660000
C  -2.6665740000  3.6226130000 -0.5548070000
H  -2.5513490000  3.2242070000  0.4589210000
H  -3.4470550000  4.3924890000 -0.4866960000
C  -1.3541470000  4.3011060000 -0.9555580000
H  -1.4444370000  4.7420290000 -1.9583090000
H  -1.2050920000  5.1468770000 -0.2694030000
