65
LPP1 3ee; extracted from final Gaussian last_standard_orientation
C   0.8654070000 -0.2192510000 -2.0105360000
H   1.4612550000  0.2266420000 -2.8145730000
H   0.8212920000 -1.3012170000 -2.1803470000
C  -0.5339640000  0.3918710000 -2.0022030000
H  -0.4507470000  1.4848890000 -2.0207820000
H  -1.0955120000  0.0873190000 -2.8920120000
P   1.6932800000  0.0073780000 -0.3566890000
P  -1.4847570000 -0.0238960000 -0.4431710000
C   2.2929700000  1.7385400000 -0.4677120000
C   1.3686310000  2.7711790000 -0.2561550000
C   3.6197760000  2.0719740000 -0.7590890000
C   1.7562720000  4.1030150000 -0.3593770000
H   0.3409330000  2.5332580000  0.0073490000
C   4.0091110000  3.4064360000 -0.8476570000
H   4.3555590000  1.2879410000 -0.9107070000
C   3.0793810000  4.4245440000 -0.6545190000
H   1.0249040000  4.8894920000 -0.1946350000
H   5.0454730000  3.6491500000 -1.0668440000
H   3.3859590000  5.4645500000 -0.7239310000
C   3.2039770000 -1.0048470000 -0.5066540000
C   3.6744270000 -1.6418530000  0.6458370000
C   3.8969880000 -1.1730910000 -1.7118940000
C   4.8240030000 -2.4256560000  0.5986450000
H   3.1147320000 -1.5253550000  1.5707770000
C   5.0409400000 -1.9647680000 -1.7596790000
H   3.5490150000 -0.6835300000 -2.6174450000
C   5.5069590000 -2.5893890000 -0.6041630000
H   5.1812090000 -2.9162190000  1.4998880000
H   5.5699020000 -2.0932270000 -2.7001190000
H   6.4001050000 -3.2069110000 -0.6437600000
C  -2.5972680000  1.4188130000 -0.2721990000
C  -3.1244470000  2.0901360000 -1.3830790000
C  -2.9427080000  1.8541010000  1.0102510000
C  -3.9660150000  3.1844080000 -1.2105220000
H  -2.8838900000  1.7550410000 -2.3884380000
C  -3.7926700000  2.9440360000  1.1830940000
H  -2.5363580000  1.3329220000  1.8726840000
C  -4.3007050000  3.6133780000  0.0731220000
H  -4.3640680000  3.7016690000 -2.0792070000
H  -4.0513000000  3.2729880000  2.1856610000
H  -4.9575140000  4.4685610000  0.2062210000
C  -2.6280370000 -1.3464000000 -0.9894060000
C  -4.0165680000 -1.2251010000 -0.8798390000
C  -2.0898490000 -2.5427120000 -1.4805990000
C  -4.8484680000 -2.2766870000 -1.2597370000
H  -4.4521920000 -0.3074260000 -0.4961970000
C  -2.9217820000 -3.5843150000 -1.8737400000
H  -1.0113510000 -2.6677230000 -1.5312550000
C  -4.3055680000 -3.4555570000 -1.7617030000
H  -5.9256230000 -2.1693800000 -1.1641370000
H  -2.4884660000 -4.5043840000 -2.2566550000
H  -4.9556660000 -4.2737900000 -2.0587170000
Rh  0.0729870000 -0.5333280000  1.1796630000
H   0.1551940000 -1.8772440000  0.2929110000
C   0.1277730000  0.9888930000  2.3055570000
O   0.1959000000  1.9020430000  3.0101800000
C  -0.8353760000 -1.8007720000  2.6789670000
H  -1.3417450000 -1.1830350000  3.4225560000
C   0.5814940000 -1.8883780000  2.7811710000
H   1.0983820000 -1.3876640000  3.5975070000
H   1.0805460000 -2.7846490000  2.4162300000
C  -1.6735690000 -2.9449620000  2.1708250000
H  -2.5868990000 -2.5985210000  1.6754940000
H  -1.1157540000 -3.5437390000  1.4429980000
H  -1.9735340000 -3.6047450000  2.9990620000
