75
LPP9 3ee; extracted from final Gaussian last_standard_orientation
Rh  0.1613760000 -0.1648600000  1.1845710000
H   0.0004150000 -1.6383180000  0.5553010000
C   0.2918700000  1.5252130000  2.0404560000
O   0.3645890000  2.5288150000  2.6066620000
C  -0.1498280000 -1.1479340000  3.1301330000
H  -0.4377920000 -0.3928340000  3.8632180000
C   1.2176940000 -1.1822400000  2.7555870000
H   1.9355230000 -0.5138320000  3.2272140000
P  -1.6778810000  0.2649900000 -0.1240200000
C  -1.3498200000  0.0050540000 -1.9434230000
C  -3.2152070000 -0.7153010000  0.0650780000
C  -2.3039720000  1.9855510000 -0.0795110000
C  -0.8960800000 -1.3972250000 -2.2291450000
H  -0.5908870000  0.7408760000 -2.2305240000
H  -2.2678370000  0.2316750000 -2.4983450000
C  -3.1051940000 -2.0449770000  0.4801460000
C  -4.4734920000 -0.2077330000 -0.2780800000
C  -2.2422200000  2.8624750000 -1.1663590000
C  -2.8022240000  2.4580660000  1.1427430000
C   0.4662770000 -1.7558980000 -2.2573860000
C  -1.8621350000 -2.3818110000 -2.4547010000
C  -4.2337970000 -2.8568960000  0.5523720000
H  -2.1249290000 -2.4335660000  0.7358340000
C  -5.6022400000 -1.0183940000 -0.1986800000
H  -4.5716270000  0.8237740000 -0.6057800000
C  -2.6632270000  4.1855620000 -1.0319390000
H  -1.8653690000  2.5261710000 -2.1269240000
C  -3.2355210000  3.7714590000  1.2712460000
H  -2.8428600000  1.7864550000  1.9974370000
C   1.5567580000 -0.7358480000 -2.1044600000
C   0.8049530000 -3.0890060000 -2.5027980000
C  -1.5099210000 -3.7082260000 -2.6804670000
H  -2.9110040000 -2.0975600000 -2.4457950000
C  -5.4841840000 -2.3442540000  0.2160100000
H  -4.1348380000 -3.8900860000  0.8742130000
H  -6.5761710000 -0.6140340000 -0.4613160000
C  -3.1615850000  4.6420000000  0.1835830000
H  -2.6039320000  4.8565830000 -1.8846410000
H  -3.6222780000  4.1206880000  2.2245390000
P   1.8293600000 -0.0086100000 -0.3917800000
H   2.5138500000 -1.1466170000 -2.4451860000
H   1.3542550000  0.1322280000 -2.7419930000
C  -0.1662420000 -4.0655340000 -2.7011400000
H   1.8563140000 -3.3622210000 -2.5599730000
H  -2.2826920000 -4.4533890000 -2.8467230000
H  -6.3669830000 -2.9748470000  0.2782670000
H  -3.4899430000  5.6724050000  0.2867360000
C   2.4116570000  1.6520890000 -0.9165160000
C   3.3556970000 -0.8351080000  0.1770800000
H   0.1289800000 -5.0940800000 -2.8890130000
C   1.5274280000  2.7305030000 -0.8194950000
C   3.6628770000  1.8520770000 -1.5134150000
C   3.5459100000 -2.2024230000 -0.0480440000
C   4.2720940000 -0.1484850000  0.9826020000
C   1.8843870000  3.9868830000 -1.3035460000
H   0.5531510000  2.5847450000 -0.3613840000
C   4.0233170000  3.1094720000 -1.9874030000
H   4.3607740000  1.0231980000 -1.5982520000
C   4.6431260000 -2.8633800000  0.4974950000
H   2.8220670000 -2.7623420000 -0.6330870000
C   5.3694660000 -0.8100570000  1.5244640000
H   4.1265410000  0.9097480000  1.1840140000
C   3.1347280000  4.1792990000 -1.8840360000
H   1.1840680000  4.8133490000 -1.2177380000
H   5.0002230000  3.2549680000 -2.4406410000
C   5.5612230000 -2.1689050000  1.2810740000
H   4.7775020000 -3.9256300000  0.3115360000
H   6.0763660000 -0.2614810000  2.1410920000
H   3.4195150000  5.1602890000 -2.2544140000
H   6.4175800000 -2.6846910000  1.7062920000
H   1.6490500000 -2.1150980000  2.3964920000
C  -0.9915690000 -2.3934100000  3.1960350000
H  -2.0519460000 -2.1827580000  3.0240270000
H  -0.6651080000 -3.1273500000  2.4508010000
H  -0.9068100000 -2.8599190000  4.1893420000
