80
LPP14 3ee; extracted from final Gaussian last_standard_orientation
Rh  0.0127950000 -0.8851330000 -1.2340310000
H  -0.0324580000 -2.1054260000 -0.1983870000
C   0.0082530000  0.5356390000 -2.4967460000
O  -0.0100990000  1.4048080000 -3.2581100000
C   0.8645160000 -2.4078130000 -2.5367800000
C  -0.5475040000 -2.4124140000 -2.6611440000
H  -1.1267060000 -3.2102600000 -2.1996840000
H  -1.0085900000 -1.9786060000 -3.5460050000
P   1.8338650000 -0.1228470000 -0.0019800000
C   2.1219690000  1.6924990000 -0.0692590000
C   1.9079210000 -0.4438260000  1.8002810000
C   3.4507910000 -0.7524500000 -0.5947230000
C   1.0400990000  2.4919190000  0.2692120000
C   3.2943340000  2.3332520000 -0.4923730000
C   2.5435190000  0.4428890000  2.6769410000
C   1.3470620000 -1.6178960000  2.3079080000
C   3.7347740000 -0.6357060000 -1.9619460000
C   4.3745840000 -1.3853530000  0.2395600000
O  -0.0786490000  1.8884590000  0.7928380000
C   1.0301010000  3.8780950000  0.1040780000
C   3.3251040000  3.7203130000 -0.6083270000
H   4.1718070000  1.7453630000 -0.7397960000
C   2.6099640000  0.1592780000  4.0377850000
H   2.9863370000  1.3584500000  2.2948890000
C   1.4228480000 -1.9047550000  3.6673570000
H   0.8329030000 -2.2937800000  1.6317880000
C   4.9237850000 -1.1330100000 -2.4810670000
H   3.0086010000 -0.1621730000 -2.6181920000
C   5.5587230000 -1.9009610000 -0.2862910000
H   4.1665890000 -1.4819120000  1.3008890000
C  -1.2533610000  2.4121610000  0.3072150000
N  -0.1748110000  4.5371300000  0.3784600000
C   2.1977840000  4.4963730000 -0.3358890000
H   4.2369300000  4.2101760000 -0.9371640000
C   2.0506420000 -1.0156330000  4.5354110000
H   3.0996960000  0.8586910000  4.7100720000
H   0.9694490000 -2.8145360000  4.0490500000
C   5.8367800000 -1.7747210000 -1.6437020000
H   5.1334290000 -1.0328200000 -3.5425720000
H   6.2652660000 -2.4006770000  0.3709690000
C  -1.3425610000  3.7979610000  0.1499000000
C  -2.2891370000  1.5425030000 -0.0043170000
H  -0.2135340000  5.5083620000  0.1005090000
H   2.2238970000  5.5749110000 -0.4682070000
H   2.0993800000 -1.2340510000  5.5988590000
H   6.7596910000 -2.1778040000 -2.0514660000
C  -2.5632050000  4.3392220000 -0.2427210000
P  -1.8968680000 -0.2565400000 -0.0588580000
C  -3.5145730000  2.1088420000 -0.3858050000
C  -3.6443330000  3.4904730000 -0.4837910000
H  -2.6651890000  5.4143240000 -0.3662620000
C  -3.4917880000 -0.9075540000 -0.6945190000
C  -1.9599690000 -0.7786280000  1.6959270000
H  -4.3561530000  1.4660020000 -0.6198890000
H  -4.5973920000  3.9192590000 -0.7792210000
C  -3.6321900000 -1.0646700000 -2.0764450000
C  -4.5828590000 -1.1819840000  0.1374350000
C  -1.9547600000  0.1206500000  2.7621700000
C  -1.9999890000 -2.1531600000  1.9642790000
C  -4.8417510000 -1.4868220000 -2.6205110000
H  -2.7782130000 -0.8598380000 -2.7152770000
C  -5.7891590000 -1.6148190000 -0.4066540000
H  -4.4888500000 -1.0560270000  1.2121370000
C  -1.9806220000 -0.3457190000  4.0756100000
H  -1.9316650000  1.1892150000  2.5741660000
C  -2.0483780000 -2.6156310000  3.2730980000
H  -1.9963940000 -2.8614780000  1.1391860000
C  -5.9211360000 -1.7670010000 -1.7855140000
H  -4.9384290000 -1.6050760000 -3.6963340000
H  -6.6289190000 -1.8305130000  0.2484920000
C  -2.0325150000 -1.7110620000  4.3347770000
H  -1.9648510000  0.3657390000  4.8966600000
H  -2.0904800000 -3.6844040000  3.4659920000
H  -6.8633030000 -2.1057010000 -2.2078510000
H  -2.0588160000 -2.0716020000  5.3594710000
H   1.4286540000 -1.9153300000 -3.3304010000
C   1.6168380000 -3.5253890000 -1.8618640000
H   2.5149510000 -3.1623210000 -1.3519460000
H   0.9850980000 -4.0246280000 -1.1192470000
H   1.9365810000 -4.2763240000 -2.5996470000
