85
LPP18 3ee; extracted from final Gaussian last_standard_orientation
C   5.9617090000  0.0896950000 -0.8615860000
C   6.0802880000 -0.9077000000 -1.8304700000
C   4.7174050000  0.3897240000 -0.3203260000
C   4.9490270000 -1.5951830000 -2.2570610000
C   2.1612120000  3.6468400000 -2.0914540000
C   1.5574530000  4.5661500000 -1.2347020000
C   2.3142950000  2.3198520000 -1.7009360000
C   3.5739640000 -0.3084850000 -0.7327090000
C   3.7017210000 -1.2943920000 -1.7100180000
C   1.0965610000  4.1429640000  0.0087990000
C   1.8581810000  1.8876290000 -0.4485470000
C   1.2378040000  2.8133770000  0.3953440000
C   2.0615400000 -2.1583690000  2.7924810000
C   1.3806940000 -3.1263430000  3.5209950000
C   1.5492630000 -0.8677990000  2.6344890000
C   0.1656280000 -2.8081400000  4.1217120000
C   0.3720050000  1.8656130000  3.8158300000
C   0.3210720000 -0.5474900000  3.2409850000
C  -0.1104630000  3.1676980000  3.7546160000
C  -0.3495810000 -1.5237110000  3.9853080000
C  -0.2601430000  0.8177010000  3.1330780000
C  -1.2506400000  3.4381930000  3.0016810000
C  -1.4278810000  1.0857070000  2.3928070000
C  -1.8988150000  2.4040040000  2.3373930000
C  -3.7600350000 -1.2730480000 -1.8914970000
C  -4.7396650000 -2.1649700000 -2.3121260000
C  -3.2768340000 -1.3086740000 -0.5765570000
C  -5.2503860000 -3.1148120000 -1.4279340000
C  -3.7893700000 -2.2694880000  0.3000640000
C  -4.7707670000 -3.1644980000 -0.1229950000
C  -2.4807400000  1.3964370000 -0.7824740000
C  -1.5809580000  2.2635550000 -1.4010950000
C  -3.8197640000  1.7883770000 -0.6414210000
C  -2.0041260000  3.5085170000 -1.8648640000
C  -4.2424050000  3.0287830000 -1.1041460000
C  -3.3320320000  3.8928590000 -1.7159460000
H   6.8404240000  0.6389670000 -0.5343520000
H   7.0533650000 -1.1409880000 -2.2540550000
H   4.6319510000  1.1876940000  0.4137760000
H   2.5213480000  3.9637220000 -3.0665690000
H   5.0329250000 -2.3676050000 -3.0168250000
H   1.4438250000  5.6034210000 -1.5379920000
H   2.7950080000  1.6153820000 -2.3745510000
H   3.0074170000 -2.4072600000  2.3170050000
H   0.6089900000  4.8421010000  0.6827180000
H   1.7999400000 -4.1234820000  3.6226390000
H   2.8090610000 -1.8187850000 -2.0348080000
H   0.8336370000  2.5044370000  1.3525240000
H  -1.6430530000  4.4493910000  2.9399450000
H  -3.3666590000 -0.5375980000 -2.5894400000
H  -5.1058060000 -2.1187110000 -3.3342930000
H  -2.7957230000  2.6148750000  1.7620100000
H  -0.5431520000  1.9672570000 -1.5108530000
H  -6.0150020000 -3.8129780000 -1.7568790000
H  -3.4236500000 -2.3338940000  1.3204780000
H  -5.1593820000 -3.9026300000  0.5736210000
H  -4.5350080000  1.1137110000 -0.1768450000
H  -1.2864530000  4.1731790000 -2.3365810000
H  -5.2829000000  3.3221300000 -0.9929280000
H  -3.6640650000  4.8619100000 -2.0788830000
P   1.9126600000  0.0927340000 -0.0393780000
P  -1.8833530000 -0.2056510000 -0.1167890000
Rh  0.1111610000 -1.1271030000 -0.8092570000
C   0.1601660000 -0.4619140000 -2.5943700000
O   0.2027100000 -0.0826710000 -3.6852860000
H   0.0941360000 -1.7348860000  0.6652820000
H   1.2570410000  1.6416590000  4.4062970000
H   0.3976170000  3.9625470000  4.2932690000
H  -1.2852150000 -1.2592480000  4.4725620000
H  -0.3716470000 -3.5503090000  4.7054990000
C  -2.2081040000  0.0010190000  1.7062300000
H  -3.2823500000  0.1818780000  1.8306030000
H  -1.9740410000 -0.9694930000  2.1494370000
C   2.3099660000  0.1182210000  1.8022160000
H   2.1550120000  1.1395150000  2.1534780000
H   3.3810300000 -0.0883750000  1.8821470000
C  -0.6530230000 -3.0836400000 -1.3189810000
H  -1.2387530000 -3.0308090000 -2.2342040000
H  -1.1809920000 -3.5222470000 -0.4746570000
C   0.7576510000 -3.1560330000 -1.3728380000
H   1.2028270000 -3.1324850000 -2.3695210000
C   1.5664240000 -3.9161040000 -0.3553060000
H   2.5551240000 -3.4680040000 -0.2055670000
H   1.0595140000 -3.9250140000  0.6141810000
H   1.7203140000 -4.9569530000 -0.6783530000
