78
LPP17 3ee; extracted from final Gaussian last_standard_orientation
P   2.0805720000 -0.0326240000 -0.1056050000
P  -2.1604050000 -0.0244670000 -0.0052060000
O  -0.1052490000  0.9945840000 -1.7282330000
C   0.6417940000  3.0841570000 -2.2584870000
C  -0.8201340000  3.1129600000 -2.1855930000
C   0.9816920000  1.7862730000 -1.8368420000
C  -1.1665240000  1.8280620000 -1.7368960000
C   2.1864810000  1.3961010000 -1.2836140000
C  -2.3301770000  1.4703490000 -1.0826680000
C   1.6882870000  3.9985340000 -2.3772100000
C  -1.8393010000  4.0661690000 -2.1942240000
C   3.2100040000  2.3484280000 -1.3947820000
C  -3.3224870000  2.4594790000 -1.0823750000
C   2.9691640000  3.5964120000 -1.9839380000
C  -3.0880410000  3.7074680000 -1.6764160000
C   3.2427670000  0.6080720000  1.1653730000
C   3.0681480000 -1.3366290000 -0.9275860000
C  -3.0823740000 -1.3032590000 -0.9363590000
C  -3.3427610000  0.4219840000  1.3247140000
C   4.5430900000  0.1247870000  1.3252960000
C   3.1989990000 -2.5720040000 -0.2803370000
C  -3.4367570000 -1.1409600000 -2.2772280000
C  -4.7149400000  0.1703210000  1.2191780000
C   2.7900530000  1.6382650000  1.9984250000
C   3.6848290000 -1.1493200000 -2.1668130000
C  -3.3784530000 -2.5132810000 -0.2948730000
C  -2.8550470000  1.0828450000  2.4567310000
C   5.3735640000  0.6560460000  2.3120100000
C   3.9420820000 -3.5954050000 -0.8570480000
C  -4.0695730000 -2.1732070000 -2.9677250000
C  -5.5829710000  0.5736490000  2.2309890000
C   3.6236050000  2.1756260000  2.9709710000
C   4.4157550000 -2.1819100000 -2.7512690000
C  -4.0213210000 -3.5361570000 -0.9812050000
C  -3.7248460000  1.4910250000  3.4631890000
C   4.9177380000  1.6812080000  3.1345600000
C   4.5491650000 -3.4034170000 -2.0974770000
C  -4.3644820000 -3.3704020000 -2.3227880000
C  -5.0901730000  1.2351540000  3.3533300000
H   1.5126860000  5.0184840000 -2.7066840000
H  -1.6606830000  5.0817020000 -2.5353890000
H   4.1854810000  2.1424750000 -0.9628970000
H  -4.2626590000  2.2816780000 -0.5681130000
H   3.7886090000  4.3053090000 -2.0594550000
H  -3.8826540000  4.4479110000 -1.6639270000
H   4.9108650000 -0.6706300000  0.6843710000
H   2.7095750000 -2.7251190000  0.6781350000
H  -3.2206770000 -0.2045520000 -2.7838530000
H  -5.1050670000 -0.3452730000  0.3462690000
H   1.7711040000  2.0008890000  1.8900090000
H   3.5915380000 -0.1950280000 -2.6771540000
H  -3.1049250000 -2.6489900000  0.7481890000
H  -1.7857660000  1.2596040000  2.5420540000
H   6.3809310000  0.2665600000  2.4323630000
H   4.0388610000 -4.5477110000 -0.3430010000
H  -4.3356030000 -2.0362220000 -4.0123350000
H  -6.6465320000  0.3697790000  2.1409390000
H   3.2596340000  2.9741010000  3.6119270000
H   4.8834620000 -2.0277990000 -3.7198780000
H  -4.2493550000 -4.4676520000 -0.4703720000
H  -3.3343320000  2.0016530000  4.3392910000
H   5.5658980000  2.0934950000  3.9029890000
H   5.1211410000 -4.2064150000 -2.5540050000
H  -4.8598160000 -4.1731650000 -2.8617710000
H  -5.7682840000  1.5464760000  4.1432000000
Rh -0.0108630000 -0.7955860000  0.7504780000
H   0.0257290000  0.5279090000  1.6673870000
C  -0.0511840000 -2.3321750000 -0.3710940000
O  -0.0780380000 -3.2576740000 -1.0583380000
C  -0.7780580000 -1.7874650000  2.5134330000
H  -1.3559090000 -2.6663740000  2.2359400000
H  -1.2995150000 -1.0958010000  3.1720370000
C   0.6325350000 -1.8639580000  2.5608480000
H   1.0773460000 -2.8128040000  2.2560790000
C   1.4414870000 -1.1147190000  3.5846310000
H   2.4571330000 -0.9042040000  3.2376980000
H   0.9716480000 -0.1570620000  3.8308120000
H   1.5229330000 -1.7053720000  4.5094040000
