69
LPP10 3ee; extracted from final Gaussian last_standard_orientation
P  -2.0244730000  0.0298840000 -0.3381940000
Rh -0.0220580000 -0.1372090000  0.9127210000
H  -0.0382020000  1.4601970000  0.8493520000
C  -0.0322240000 -2.0424070000  0.9892850000
O  -0.0448510000 -3.1948950000  1.0234510000
C   3.1353440000 -1.3588810000 -0.3291500000
C   3.7908690000 -1.8376190000 -1.4683930000
C   3.4112000000 -1.9349980000  0.9145890000
C   4.7095310000 -2.8786410000 -1.3629700000
H   3.5756560000 -1.3897740000 -2.4358500000
C   4.3376990000 -2.9677830000  1.0198840000
H   2.8905360000 -1.5715280000  1.7966230000
C   4.9855850000 -3.4423210000 -0.1190090000
H   5.2105210000 -3.2493650000 -2.2530120000
H   4.5478240000 -3.4085940000  1.9903960000
H   5.7023380000 -4.2547710000 -0.0377610000
C   2.9838940000  1.5130630000 -0.3270980000
C   2.4038710000  2.7315010000  0.0402500000
C   4.3458200000  1.4773520000 -0.6474500000
C   3.1655970000  3.8959030000  0.0717430000
H   1.3535350000  2.7512970000  0.3175450000
C   5.1087360000  2.6403910000 -0.6033070000
H   4.8144170000  0.5385370000 -0.9270020000
C   4.5203750000  3.8521810000 -0.2476590000
H   2.7011850000  4.8358550000  0.3573850000
H   6.1667380000  2.5986490000 -0.8474240000
H   5.1184730000  4.7586810000 -0.2134890000
C  -3.0382620000  1.5508350000 -0.2070020000
C  -2.7237520000  2.5214140000  0.7451600000
C  -4.1315380000  1.7516210000 -1.0578310000
C  -3.4923110000  3.6791410000  0.8499100000
H  -1.8657240000  2.3620440000  1.3910100000
C  -4.8946000000  2.9094140000 -0.9562020000
H  -4.3821870000  1.0007890000 -1.8024600000
C  -4.5768210000  3.8742760000 -0.0000690000
H  -3.2405140000  4.4291160000  1.5948410000
H  -5.7395220000  3.0600120000 -1.6226050000
H  -5.1758540000  4.7773900000  0.0790070000
C  -3.2591410000 -1.3095800000 -0.1854490000
C  -3.5082470000 -1.8492320000  1.0801130000
C  -3.9577800000 -1.8021680000 -1.2917800000
C  -4.4534790000 -2.8577550000  1.2394240000
H  -2.9511710000 -1.4753750000  1.9357230000
C  -4.8948090000 -2.8196150000 -1.1325640000
H  -3.7570170000 -1.3913760000 -2.2786220000
C  -5.1457910000 -3.3459030000  0.1327390000
H  -4.6434270000 -3.2697840000  2.2266610000
H  -5.4284980000 -3.2028170000 -1.9981020000
H  -5.8768040000 -4.1402710000  0.2555660000
C   0.7779290000  0.1359010000  2.9223990000
C  -0.6393420000  0.1528310000  2.9667730000
H  -1.1559290000  1.0985850000  3.1189220000
H  -1.1794590000 -0.7149700000  3.3392180000
P   1.9335140000  0.0115670000 -0.4193530000
C  -1.4590440000 -0.0038710000 -2.0704960000
C  -0.7915170000 -1.2102920000 -2.4142760000
C  -0.7833060000  1.1931910000 -2.4100300000
C   0.5855300000 -1.2161630000 -2.4390550000
H  -1.3207290000 -2.1605590000 -2.3754980000
C   0.5984690000  1.1874070000 -2.4400280000
H  -1.3046760000  2.1465580000 -2.3501230000
C   1.2740530000 -0.0148230000 -2.1221170000
H   1.1089530000 -2.1700700000 -2.4194050000
H   1.1298660000  2.1362020000 -2.4056000000
H   1.2618100000 -0.7907230000  3.2345060000
C   1.6039550000  1.3695510000  3.1703310000
H   2.5473820000  1.3518070000  2.6152820000
H   1.0611570000  2.2700390000  2.8647130000
H   1.8461640000  1.4624980000  4.2394110000
