79
LPP19 3ee; extracted from final Gaussian last_standard_orientation
H  -3.2663690000  1.8221590000  1.4393120000
H  -4.1273520000  1.9271560000  3.7533020000
H   3.0630380000 -2.2518810000 -1.1146710000
H   5.3984810000 -3.1040230000 -1.0387480000
H  -2.2813330000  3.9611130000 -2.6825770000
H  -2.7875640000  1.6411400000 -2.0456990000
H   0.5268280000  4.2133160000  0.5539010000
H  -0.6090930000  5.2711470000 -1.3750670000
H   2.5020290000 -0.4559850000  2.7368740000
H   1.7750330000  0.4977380000  4.8853410000
H   0.0841010000  2.3331350000  4.9180050000
H  -0.8977530000  3.1195530000  2.7875230000
C  -2.3190180000 -0.0981160000  1.6970380000
C  -3.0696260000  1.0036960000  2.1272840000
C  -3.5509310000  1.0643620000  3.4303000000
C  -3.2869150000  0.0245660000  4.3207350000
C   3.8161110000 -1.7471240000 -0.5137090000
C   5.1226810000 -2.2254420000 -0.4620050000
C   0.2025730000 -1.6976100000 -2.3888020000
C  -1.7673470000  3.5121640000 -1.8370670000
C  -2.0476570000  2.1973850000 -1.4790520000
C  -1.4009450000  1.5814750000 -0.4027000000
C  -0.4508630000  2.3233950000  0.3367830000
C  -0.2033270000  3.6515010000 -0.0218570000
C  -0.8397830000  4.2445360000 -1.1057120000
C   0.2475190000  1.8005820000  1.5490630000
C   1.2501560000  0.8109880000  1.5297640000
C   1.7699020000  0.3458540000  2.7435760000
C   1.3568990000  0.8795430000  3.9581070000
C   0.4121500000  1.9011710000  3.9769510000
C  -0.1315070000  2.3495290000  2.7805870000
O   0.3233840000 -1.8725290000 -3.5268320000
P  -1.7058040000 -0.1993930000 -0.0293570000
H  -2.1497420000 -0.9855970000 -2.7745390000
H  -4.1503850000 -1.4724520000 -4.1281150000
H  -6.6310900000 -0.7958760000 -0.6858240000
H  -4.6368890000 -0.2658880000  0.6531840000
H  -2.3333320000 -1.8872870000  4.5898160000
H  -1.4714120000 -1.9845510000  2.2646430000
H   6.4320670000  0.0351340000  1.7076410000
H   4.1286330000  0.8911910000  1.6079440000
H   0.1955400000 -1.6952890000  1.0928560000
H   0.5870750000  0.7191020000 -2.6245770000
H   0.9498970000  2.6184440000 -4.1625190000
H   3.8292810000  4.2648790000 -1.4301320000
H   3.4748440000  2.3637710000  0.0904990000
C  -3.2465150000 -0.5665380000 -0.9690930000
C  -3.1327070000 -0.9234180000 -2.3190790000
C  -4.2616150000 -1.2042410000 -3.0810820000
C  -5.5263150000 -1.1587950000 -2.4977260000
C  -5.6501690000 -0.8248700000 -1.1525470000
C  -4.5206730000 -0.5254160000 -0.3936900000
C  -2.5455820000 -1.0754140000  3.8995480000
C  -2.0654690000 -1.1372180000  2.5932620000
C   3.4403100000 -0.6165730000  0.2187970000
C   6.0671740000 -1.5865910000  0.3367140000
C   5.7009950000 -0.4648800000  1.0780830000
C   4.3987220000  0.0215990000  1.0160100000
C   2.0154430000  1.3956100000 -1.1729650000
C   1.3139880000  1.4836650000 -2.3747810000
C   1.5122870000  2.5609870000 -3.2348020000
C   2.4166480000  3.5630060000 -2.8996140000
C   3.1222880000  3.4847050000 -1.6995580000
C   2.9237780000  2.4083380000 -0.8434430000
P   1.7200830000 -0.0238470000 -0.0345990000
Rh  0.1046480000 -1.5968860000 -0.4952950000
C  -0.6995410000 -3.5850680000 -0.3392120000
C   0.7201390000 -3.6797140000 -0.3444110000
H  -1.2700800000 -3.8527230000 -1.2263470000
H  -1.2356220000 -3.7429210000  0.5954200000
H   1.1865600000 -3.9954500000 -1.2795420000
C   1.4948130000 -4.0827490000  0.8840830000
H   2.4787630000 -3.6039320000  0.9251570000
H   0.9512610000 -3.8043660000  1.7934790000
H   1.6550550000 -5.1713150000  0.9004130000
H  -6.4088720000 -1.3909050000 -3.0873480000
H  -3.6563710000  0.0749470000  5.3413990000
H   2.5709690000  4.4055680000 -3.5682650000
H   7.0849420000 -1.9636330000  0.3868790000
