85
LPP21 3ee; extracted from final Gaussian last_standard_orientation
Rh -0.3080210000 -2.1351400000 -0.1425620000
P  -1.7931250000 -0.3794880000 -0.0686070000
P   1.6091900000 -0.8265650000  0.0805130000
O   0.5467960000  4.0474530000  3.3264320000
O  -0.3966070000  3.9098690000  1.2308500000
O   1.4113520000  3.5621150000 -1.4710970000
O   0.6633800000  3.6712880000 -3.6466870000
C  -1.1533200000  0.9354490000 -1.1726200000
C  -1.5866890000  1.0006490000 -2.4974500000
H  -2.3713090000  0.3292180000 -2.8305380000
C  -1.0314290000  1.8886900000 -3.4292420000
H  -1.3771060000  1.9255560000 -4.4564530000
C  -0.0272060000  2.7102040000 -2.9722240000
C   0.4222760000  2.6445010000 -1.6600130000
C  -0.0790820000  1.7531520000 -0.7295860000
C   1.6685970000  4.1317930000 -2.7484690000
H   2.6509650000  3.7977460000 -3.1024490000
H   1.6190820000  5.2217360000 -2.6754970000
C   1.3952140000  0.6892590000  1.1044150000
C   1.9774390000  0.7976540000  2.3664730000
H   2.6381130000  0.0112480000  2.7145290000
C   1.7501580000  1.8950950000  3.2122210000
H   2.2109830000  1.9624200000  4.1916200000
C   0.9201600000  2.8797600000  2.7333300000
C   0.3485420000  2.7946000000  1.4687050000
C   0.5373020000  1.7218200000  0.6227080000
C  -0.4088090000  4.6393370000  2.4513010000
H  -1.4052180000  4.5715030000  2.9041360000
H  -0.1276610000  5.6774930000  2.2560630000
C  -3.5163710000 -0.6917370000 -0.6230250000
C  -4.0058970000 -1.9859440000 -0.4209720000
H  -3.3296760000 -2.7424010000 -0.0286460000
C  -5.3258000000 -2.3023400000 -0.7321560000
C  -6.1682830000 -1.3300540000 -1.2641080000
C  -5.6873310000 -0.0395900000 -1.4781190000
C  -4.3724560000  0.2805620000 -1.1548070000
H  -4.0098520000  1.2875040000 -1.3389020000
C  -2.1003870000  0.5359140000  1.5043900000
C  -1.5379970000  0.0798280000  2.6970930000
H  -0.9025920000 -0.7980650000  2.6851460000
C  -1.7521850000  0.7631090000  3.8910250000
C  -2.5423330000  1.9086520000  3.9063320000
C  -3.1134810000  2.3696620000  2.7204370000
C  -2.8892790000  1.6915120000  1.5273760000
H  -3.3243530000  2.0730320000  0.6094920000
C   3.0221360000 -1.6923750000  0.8772470000
C   4.3110920000 -1.7092000000  0.3363930000
H   4.5230990000 -1.1687610000 -0.5799390000
C   5.3316050000 -2.4236880000  0.9617470000
C   5.0835920000 -3.1205190000  2.1398190000
C   3.8012580000 -3.1122040000  2.6867040000
C   2.7784390000 -2.4170060000  2.0522160000
H   1.7767290000 -2.4382720000  2.4703150000
C   2.3790040000 -0.1035620000 -1.4217420000
C   3.3144560000  0.9326380000 -1.3037340000
H   3.5628710000  1.3243560000 -0.3208840000
C   3.9184440000  1.4678220000 -2.4364990000
C   3.5804660000  0.9877290000 -3.7018290000
C   2.6475540000 -0.0380640000 -3.8261690000
C   2.0551700000 -0.5856720000 -2.6908550000
H   1.3190680000 -1.3789620000 -2.7805680000
C  -0.5431500000 -2.9397750000  1.5612020000
O  -0.7446580000 -3.5241460000  2.5401350000
H  -0.2896930000 -1.6176340000 -1.6486820000
H  -2.7130950000  2.4420990000  4.8374780000
H  -7.1956190000 -1.5769240000 -1.5175190000
H   5.8813860000 -3.6748100000  2.6263070000
H   4.0444690000  1.4130710000 -4.5877080000
H   6.3253410000 -2.4318570000  0.5220830000
H   3.5921580000 -3.6599460000  3.6014790000
H  -1.2948180000  0.4015430000  4.8076210000
H  -3.7351950000  3.2614150000  2.7239360000
H  -5.6912260000 -3.3124270000 -0.5683160000
H  -6.3383310000  0.7221310000 -1.8986500000
H   4.6496290000  2.2652700000 -2.3312950000
H   2.3768830000 -0.4129620000 -4.8093290000
C  -0.9955110000 -3.9570390000 -1.1181650000
C   0.4232690000 -3.9619460000 -1.0028060000
H  -1.5475730000 -4.5729650000 -0.4058590000
H   1.0249680000 -3.7841680000 -1.8930220000
H   0.9119510000 -4.5844360000 -0.2557950000
C  -1.6803030000 -3.8138210000 -2.4535100000
H  -1.8751010000 -4.8022750000 -2.8962310000
H  -1.0539980000 -3.2460800000 -3.1502560000
H  -2.6406660000 -3.2940570000 -2.3722400000
