91
LPP20 3ee; extracted from final Gaussian last_standard_orientation
C   5.3683480000 -2.1220630000  1.0187860000
C   6.0525040000 -1.1574300000  1.7542310000
C   4.0635650000 -1.8813440000  0.5978830000
C   5.4289070000  0.0502800000  2.0604990000
C   2.0974130000  0.8575250000 -3.7250920000
C   2.8960110000  1.9919220000 -3.6244210000
C   1.7568220000  0.1409980000 -2.5815920000
C   3.4318300000 -0.6691130000  0.8927570000
C   4.1293650000  0.2971120000  1.6275470000
C   3.3585570000  2.4027570000 -2.3757690000
C   2.2117390000  0.5466870000 -1.3267480000
C   0.9305820000  4.9679300000 -1.6439000000
C   3.0226940000  1.6833330000 -1.2355210000
C   1.1882770000  0.6589540000  2.6783290000
C   0.5309410000  5.0212110000 -2.9966270000
C   0.5110010000  1.4210640000  3.5895780000
C   0.6093920000  3.8846970000 -0.8631760000
C   0.9350420000  0.7766860000  1.2849300000
C  -0.1846620000  3.9831060000 -3.5396730000
C  -0.4559950000  2.3640230000  3.1661430000
C  -0.1417000000  2.8012300000 -1.3881800000
C  -0.0648090000  1.6312770000  0.8382540000
C  -1.1487130000  3.1784750000  4.0936570000
C  -0.5373440000  2.8575010000 -2.7562860000
C  -0.7452960000  2.4780650000  1.7753510000
C  -0.4892650000  1.6637000000 -0.5929470000
C  -2.0846660000  4.0899360000  3.6701260000
C  -1.2664620000  1.7752930000 -3.2975920000
C  -1.7215460000  3.4254840000  1.3729580000
C  -1.2304730000  0.6224420000 -1.1537300000
C  -2.3670360000  4.2154570000  2.2936680000
C  -1.5997930000  0.6959450000 -2.5225010000
C  -2.3722720000 -1.2571450000  2.3936840000
C  -3.0887930000 -0.9284720000  3.5409460000
C  -2.4547820000 -0.4550160000  1.2521330000
C  -3.8922300000  0.2088370000  3.5619800000
C  -3.2719800000  0.6791490000  1.2799910000
C  -3.9824060000  1.0118890000  2.4281020000
C  -2.9146930000 -1.7210610000 -1.2387980000
C  -4.1444550000 -1.0783430000 -1.4334230000
C  -2.7250220000 -2.9914160000 -1.7858330000
C  -5.1519710000 -1.6899530000 -2.1698150000
C  -3.7357970000 -3.6073720000 -2.5222990000
C  -4.9494140000 -2.9568690000 -2.7175610000
H   5.8460950000 -3.0684590000  0.7806560000
H   7.0673580000 -1.3472350000  2.0926910000
H   3.5097440000 -2.6363260000  0.0445340000
H   1.7241680000  0.5334650000 -4.6925750000
H   5.9559760000  0.8054420000  2.6373410000
H   3.1548610000  2.5590800000 -4.5140960000
H   1.1100810000 -0.7248940000 -2.6597020000
H   1.5047340000  5.7869860000 -1.2196850000
H   1.9202680000 -0.0650420000  3.0227250000
H   3.9750230000  3.2929550000 -2.2884360000
H   0.7101090000  1.3109210000  4.6527620000
H   0.7944940000  5.8818120000 -3.6051090000
H   3.6552980000  1.2420370000  1.8782780000
H   0.9338840000  3.8465290000  0.1712590000
H   3.3861900000  2.0169010000 -0.2686260000
H  -0.9208810000  3.0690730000  5.1512210000
H  -0.4925920000  4.0073410000 -4.5822510000
H  -2.6072950000  4.7135310000  4.3899800000
H  -1.5624890000  1.8091450000 -4.3434040000
H  -1.7285970000 -2.1313060000  2.3791740000
H  -1.9580170000  3.5255310000  0.3192460000
H  -3.0102310000 -1.5585060000  4.4228870000
H  -3.1055700000  4.9386640000  1.9587210000
H  -2.1575290000 -0.1231730000 -2.9641740000
H  -4.3179790000 -0.0945580000 -1.0089960000
H  -4.4408300000  0.4734420000  4.4617870000
H  -3.3237130000  1.3306810000  0.4124100000
H  -4.5885230000  1.9129080000  2.4421990000
H  -1.7798200000 -3.4971060000 -1.6166780000
H  -6.0995740000 -1.1783510000 -2.3149100000
H  -3.5715870000 -4.5972290000 -2.9391840000
H  -5.7395140000 -3.4344450000 -3.2905570000
P   1.7626160000 -0.4272910000  0.1680060000
P  -1.5489680000 -0.9653530000 -0.2600160000
Rh  0.3767890000 -2.2630960000  0.0205480000
C   0.7490680000 -2.9350980000 -1.7183750000
O   1.0128470000 -3.4382430000 -2.7260000000
H   0.1801660000 -1.8449940000  1.5455620000
C  -0.2140170000 -4.2062230000  0.7310010000
H  -0.5660670000 -4.8528870000 -0.0708620000
H  -0.8937150000 -4.1532120000  1.5802430000
C   1.1836500000 -4.0488220000  0.9526030000
H   1.8505250000 -4.5627650000  0.2577530000
C   1.7515140000 -3.9016310000  2.3413620000
H   2.6489910000 -3.2745710000  2.3559100000
H   1.0160370000 -3.4456180000  3.0131990000
H   2.0277240000 -4.8843940000  2.7523440000
