117
LPP24 3ee; extracted from final Gaussian last_standard_orientation
P  -1.7804730000  0.0271190000 -0.3345820000
P   1.8699950000  0.0696890000  0.6760740000
O  -2.6708520000  0.5831420000 -1.6294550000
O  -2.9582550000 -0.1311700000  0.7922390000
O  -1.7363170000 -1.5237310000 -0.8805960000
O   1.8598360000 -1.4691790000  1.2530400000
O   2.7918970000 -0.0745130000 -0.6757370000
O   3.0328250000  0.5653180000  1.7608810000
C  -4.6273760000  1.5680240000 -0.6971320000
C  -3.4411370000  1.7027420000 -1.3960860000
C  -2.9975000000  2.9381890000 -1.9062740000
C  -3.7324230000  4.0699190000 -1.6668390000
C  -4.9093570000  4.0143970000 -0.8797250000
C  -5.3606460000  2.7552240000 -0.3766680000
C  -5.0704400000  0.2184930000 -0.2761040000
C  -4.2181280000 -0.5878520000  0.4535120000
C  -4.5893070000 -1.8550480000  0.9378470000
C  -5.8367770000 -2.3419710000  0.6535080000
C  -6.7376350000 -1.6005880000 -0.1505940000
C  -6.3501150000 -0.3140270000 -0.6382390000
C   0.2028190000 -2.8580400000 -0.5509490000
C  -0.6182100000 -2.1360560000 -1.3917100000
C  -0.4029250000 -2.0744410000 -2.7839410000
C   0.6348150000 -2.7772120000 -3.3382030000
C   1.4862190000 -3.5707880000 -2.5297220000
C   1.2752500000 -3.6074330000 -1.1171980000
C  -0.0620470000 -2.8391000000  0.9068480000
C   0.7342670000 -2.0886220000  1.7453260000
C   0.4692270000 -1.9737780000  3.1262520000
C  -0.6070580000 -2.6263570000  3.6673870000
C  -1.4447610000 -3.4357290000  2.8597230000
C  -1.1651750000 -3.5532440000  1.4648390000
C   5.0910310000  0.2749760000 -0.0912000000
C   4.1015750000 -0.5195550000 -0.6369210000
C   4.3691840000 -1.7625920000 -1.2370290000
C   5.6515330000 -2.2403240000 -1.2562760000
C   6.7028260000 -1.5151740000 -0.6444590000
C   6.4233130000 -0.2523130000 -0.0370510000
C   4.7499080000  1.6002810000  0.4695380000
C   3.7510320000  1.6932540000  1.4214870000
C   3.4712130000  2.8929190000  2.1035260000
C   4.1579340000  4.0335110000  1.7805660000
C   5.1189320000  4.0272520000  0.7395670000
C   5.4136650000  2.8029710000  0.0648080000
H  -2.0770720000  2.9644520000 -2.4805860000
H  -3.4057690000  5.0294970000 -2.0590280000
H  -3.8753890000 -2.4160190000  1.5294830000
H  -6.1388390000 -3.3176100000  1.0255550000
H   0.8094460000 -2.7418020000 -4.4102200000
H  -0.8247650000 -2.5369260000  4.7283410000
H   3.5492790000 -2.3128210000 -1.6801290000
H   5.8670850000 -3.1976400000 -1.7234670000
H   2.7150490000  2.8817850000  2.8800980000
H   3.9563640000  4.9629870000  2.3066780000
Rh -0.0246310000  1.2075080000  0.3707940000
C   0.4841980000  2.0213060000 -1.2972560000
H  -0.4113450000  0.5671670000  1.7819620000
O   0.7885540000  2.5135770000 -2.2893200000
C  -1.1279810000  2.9996050000  1.1181780000
C   0.2105410000  3.0486480000  1.5400300000
H  -1.4025020000  3.5859700000  0.2425830000
H   0.4416980000  2.8111770000  2.5759640000
H   0.9298510000  3.6921680000  1.0416680000
C  -2.2596160000  2.7472340000  2.0763890000
H  -2.6115490000  3.7035840000  2.4883570000
H  -1.9372910000  2.1097880000  2.9059860000
H  -3.1096650000  2.2631390000  1.5920380000
H  -1.0794170000 -1.4779160000 -3.3877580000
H   1.1310680000 -1.3621380000  3.7312360000
C   5.7847570000  5.2145570000  0.3466020000
C   6.6871930000  5.2076300000 -0.6877770000
C   6.9521680000  4.0063360000 -1.3803500000
C   6.3336050000  2.8354780000 -1.0141710000
H   5.5569560000  6.1362710000  0.8765680000
H   7.1878920000  6.1249500000 -0.9840060000
H   7.6473060000  4.0086550000 -2.2151810000
H   6.5369780000  1.9206380000 -1.5602190000
C   8.0221310000 -2.0300140000 -0.6038340000
C   9.0280250000 -1.3468310000  0.0330030000
C   8.7460240000 -0.1189640000  0.6693780000
C   7.4796440000  0.4132380000  0.6363600000
C  -8.0085180000 -2.1208890000 -0.4990960000
C  -8.8596170000 -1.4192090000 -1.3163410000
C  -8.4634730000 -0.1654860000 -1.8297580000
C  -7.2426860000  0.3723450000 -1.5006470000
C  -5.6362230000  5.1887780000 -0.5635570000
C  -6.7481930000  5.1355300000  0.2395710000
C  -7.1739640000  3.8976410000  0.7679210000
C  -6.4999040000  2.7386700000  0.4677960000
H  -5.2861000000  6.1378610000 -0.9622200000
H  -7.2939560000  6.0433000000  0.4802830000
H  -8.0396240000  3.8613850000  1.4232700000
H  -6.8299260000  1.7948140000  0.8879390000
H  -8.2918580000 -3.0966870000 -0.1118520000
H  -9.8298090000 -1.8305560000 -1.5799470000
H  -9.1273870000  0.3771290000 -2.4968860000
H  -6.9466680000  1.3312420000 -1.9118690000
C  -2.5477550000 -4.1388980000  3.4040420000
C  -3.3339850000 -4.9400020000  2.6108230000
C  -3.0476350000 -5.0680550000  1.2339070000
C  -1.9932110000 -4.3874580000  0.6737920000
C   2.5474830000 -4.3263150000 -3.0879480000
C   3.3652040000 -5.0889530000 -2.2889640000
C   3.1554730000 -5.1243770000 -0.8927220000
C   2.1370290000 -4.4010560000 -0.3206150000
H   2.7026420000 -4.2893420000 -4.1633720000
H   4.1737890000 -5.6660960000 -2.7286040000
H   3.8083820000 -5.7249900000 -0.2660720000
H   1.9808980000 -4.4272930000  0.7531380000
H   8.2183820000 -2.9873000000 -1.0807990000
H   10.0349340000 -1.7534310000  0.0614220000
H   9.5360840000  0.4079500000  1.1971080000
H   7.2764700000  1.3508210000  1.1416600000
H  -2.7571840000 -4.0361990000  4.4659460000
H  -4.1743510000 -5.4776290000  3.0407100000
H  -3.6705530000 -5.7038450000  0.6112530000
H  -1.7821370000 -4.4823650000 -0.3865630000
