81
EV1 (P3) 3ea; extracted from final Gaussian last_standard_orientation
C  -2.3798230000 -1.2236930000  4.7328540000
C  -2.4516440000  0.1303450000  4.4210930000
C  -2.3409580000  0.5634770000  3.1031250000
C  -2.1402490000 -0.3588950000  2.0707460000
C  -2.0787790000 -1.7204280000  2.3785710000
C  -2.2017880000 -2.1376450000  3.6984670000
P  -1.9846490000  0.0900640000  0.2861330000
C  -4.3364980000 -0.4138510000 -1.2000660000
C  -3.7733960000  0.2996140000 -0.1440550000
C  -4.5763220000  1.1869120000  0.5844160000
C  -5.9169980000  1.3510740000  0.2613330000
C  -6.4841620000  0.6394750000 -0.7941760000
C  -5.6812300000 -0.2360760000 -1.5132570000
C  -1.4835380000  1.8559660000  0.3293210000
C  -0.5634020000  2.3516080000  1.2599660000
C  -0.1824190000  3.6894380000  1.1980370000
C  -0.6694670000  4.5429200000  0.2149790000
C  -1.5586270000  4.0352960000 -0.7279450000
C  -1.9655270000  2.7080050000 -0.6740540000
Rh -0.7368350000 -1.3039050000 -1.1146960000
C   2.3719120000  0.8030530000  3.6259650000
C   3.0053920000  1.4359820000  2.5602590000
C   2.7488700000  1.0723140000  1.2413820000
C   1.8510330000  0.0333510000  0.9859220000
C   1.2339190000 -0.6296360000  2.0514790000
C   1.4859990000 -0.2384650000  3.3615290000
P   1.4608390000 -0.5720890000 -0.6968640000
C   3.9073170000 -1.8956940000 -0.1829180000
C   2.7015820000 -1.9180530000 -0.8893810000
C   2.4521810000 -2.9534670000 -1.7953300000
C   3.3983850000 -3.9548350000 -1.9928100000
C   4.5976110000 -3.9434000000 -1.2880310000
C   4.8361570000 -2.9089750000 -0.3879070000
C   2.1473130000  0.7167300000 -1.8083960000
C   3.1220920000  0.4072280000 -2.7614310000
C   3.5793130000  1.3844480000 -3.6411690000
C   3.0812060000  2.6794210000 -3.5786390000
C   2.1099430000  2.9803860000 -2.6270820000
C   1.6267680000  2.0169030000 -1.7489280000
H  -2.1153940000 -1.9658630000 -1.5114900000
C  -0.4304610000 -3.0182900000 -0.4245120000
O  -0.3298270000 -4.1019240000 -0.0291000000
H  -2.5941330000  0.8554800000  5.2170720000
H  -1.9196990000 -2.4492700000  1.5905060000
H  -3.7283980000 -1.1056500000 -1.7729720000
H  -4.1537610000  1.7581800000  1.4045090000
H  -6.5319190000  2.0399390000  0.8330970000
H  -0.1516090000  1.7170700000  2.0367640000
H  -2.6703960000  2.3328320000 -1.4092830000
H   3.2470320000  1.5943330000  0.4312110000
H   0.5441740000 -1.4422410000  1.8494150000
H   0.9831530000 -0.7426010000  4.1815500000
H   1.5099340000 -2.9749230000 -2.3343070000
H   3.5313130000 -0.5957030000 -2.8159910000
H   4.3373620000  1.1358900000 -4.3779490000
H   0.8617610000  2.2770620000 -1.0241310000
C  -0.4046370000 -1.2060900000 -3.2770640000
C  -1.0688970000 -0.0333300000 -2.8528100000
H   0.6654750000 -1.1126060000 -3.4715830000
H  -2.1289460000  0.0830370000 -3.0735700000
H  -0.5197860000  0.9014840000 -2.7654530000
C  -1.0823820000 -2.2719230000 -4.0983780000
H  -0.9540330000 -2.0683170000 -5.1714830000
H  -2.1557430000 -2.3095550000 -3.8855840000
H  -0.6692450000 -3.2667050000 -3.8985990000
H   3.1971810000 -4.7584490000 -2.6950040000
H   4.1254380000 -1.1037940000  0.5256360000
H  -2.3919880000  1.6259700000  2.8904700000
H  -1.9357080000  4.6850670000 -1.5117480000
Cl  6.3309660000 -2.8807640000  0.5028940000
Cl  1.4955090000  4.6058680000 -2.5529190000
Cl  0.9282620000  4.3083470000  2.3830640000
Cl -6.3632670000 -1.1309760000 -2.8418900000
Cl -2.1109480000 -3.8355540000  4.0643060000
Cl  4.1516790000  2.7017010000  2.8820680000
H   5.3369800000 -4.7249530000 -1.4272240000
H   3.4363150000  3.4502540000 -4.2541850000
H   2.5764530000  1.1191890000  4.6432970000
H  -7.5301110000  0.7627210000 -1.0546440000
H  -2.4617360000 -1.5683920000  5.7582590000
H  -0.3487380000  5.5782380000  0.1840030000
