77
LPP5 3ea; extracted from final Gaussian last_standard_orientation
C   0.6557900000 -0.6231120000  3.2919350000
H   0.7339250000 -1.3282090000  4.1307190000
H   0.4427150000 -1.2176580000  2.3945540000
C   1.9935760000  0.0866990000  3.1003880000
H   2.7979630000 -0.6529730000  3.0081890000
H   2.2230810000  0.6796940000  3.9969090000
C   2.0353830000  1.0272340000  1.8949410000
H   1.2382430000  1.7761560000  1.9618690000
H   2.9895990000  1.5686920000  1.8874600000
P  -1.8874510000 -0.2760030000  0.6285240000
P   1.8804090000  0.1796730000  0.2468340000
Rh  0.0128190000 -0.9950750000 -0.6263970000
H   1.1724500000 -1.5646390000 -1.5412700000
C  -0.4873210000 -0.0134100000 -2.1483840000
O  -0.7478060000  0.4985600000 -3.1531480000
C  -3.4196300000 -0.6768920000 -0.3078520000
C  -4.1503180000 -1.8468890000 -0.0745850000
C  -3.8191740000  0.1681040000 -1.3505660000
C  -5.2568100000 -2.1617920000 -0.8612260000
H  -3.8630190000 -2.5278140000  0.7218010000
C  -4.9248330000 -0.1454890000 -2.1328370000
H  -3.2646160000  1.0816070000 -1.5468220000
C  -5.6478310000 -1.3126510000 -1.8913060000
H  -5.8121370000 -3.0748080000 -0.6644730000
H  -5.2227550000  0.5256310000 -2.9336940000
H  -6.5111910000 -1.5571780000 -2.5036740000
C  -2.1117190000  1.5286750000  0.8526270000
C  -1.1651320000  2.4087200000  0.3235190000
C  -3.2314370000  2.0472760000  1.5144670000
C  -1.3180460000  3.7855580000  0.4722060000
H  -0.3134360000  2.0089530000 -0.2194610000
C  -3.3805450000  3.4212480000  1.6695840000
H  -3.9957710000  1.3741840000  1.8949530000
C  -2.4214250000  4.2926070000  1.1522010000
H  -0.5744950000  4.4554620000  0.0487310000
H  -4.2502980000  3.8151710000  2.1881580000
H  -2.5430230000  5.3657040000  1.2716410000
C   2.3069430000  1.5551130000 -0.8957810000
C   2.5690170000  1.2363810000 -2.2360290000
C   2.3208290000  2.9000670000 -0.5131910000
C   2.8451250000  2.2329360000 -3.1631680000
H   2.5481980000  0.1957480000 -2.5490910000
C   2.5814380000  3.9017840000 -1.4487870000
H   2.1264730000  3.1834790000  0.5163180000
C   2.8463410000  3.5723800000 -2.7734320000
H   3.0501360000  1.9646300000 -4.1958890000
H   2.5827850000  4.9420240000 -1.1338090000
H   3.0517710000  4.3528120000 -3.5007610000
C   3.4637250000 -0.7562820000  0.2937680000
C   3.4522340000 -2.0787880000  0.7472680000
C   4.6899850000 -0.1605700000 -0.0215470000
C   4.6392530000 -2.7945400000  0.8800030000
H   2.5021430000 -2.5425510000  0.9884870000
C   5.8756470000 -0.8800990000  0.0994600000
H   4.7187590000  0.8676210000 -0.3710370000
C   5.8537210000 -2.1980610000  0.5506660000
H   4.6130320000 -3.8217520000  1.2338660000
H   6.8199840000 -0.4084170000 -0.1591200000
H   6.7801620000 -2.7582190000  0.6437330000
C  -0.8578880000 -2.9474310000 -0.8735870000
H  -1.9223130000 -2.8958140000 -0.6446220000
C   0.0482530000 -2.9922740000  0.2198720000
H  -0.3258400000 -3.0368050000  1.2417220000
H   0.9933870000 -3.5117550000  0.0735910000
C  -0.5721780000 -3.6502880000 -2.1764320000
H  -1.0413240000 -3.1368350000 -3.0224950000
H   0.5048640000 -3.6991910000 -2.3687330000
H  -0.9626780000 -4.6789190000 -2.1537570000
C  -0.4795870000  0.3584760000  3.5493670000
H  -0.4634170000  1.1476720000  2.7899700000
H  -0.3105530000  0.8653580000  4.5095580000
C  -1.8750010000 -0.2470380000  3.5531040000
H  -2.5982570000  0.5604110000  3.7156310000
H  -1.9846860000 -0.9328790000  4.4045110000
C  -2.2728570000 -1.0254280000  2.2944200000
H  -3.3501480000 -1.2176310000  2.3346790000
H  -1.7816600000 -2.0054680000  2.2878150000
