65
LPP1 3ea; extracted from final Gaussian last_standard_orientation
C   0.6218150000 -0.1576390000 -2.0402650000
H   1.1921850000  0.2475910000 -2.8841090000
H   0.5226310000 -1.2414030000 -2.1749740000
C  -0.7524670000  0.4962030000 -1.9349190000
H  -0.6431370000  1.5857630000 -1.8730860000
H  -1.3757040000  0.2841970000 -2.8110160000
P   1.5205640000  0.1126170000 -0.4384680000
P  -1.5950280000 -0.0125300000 -0.3537430000
C   2.0742550000  1.8492080000 -0.6240220000
C   1.2830340000  2.8737350000 -0.0946980000
C   3.2323610000  2.1794010000 -1.3372640000
C   1.6395600000  4.2070010000 -0.2805020000
H   0.3901960000  2.6198570000  0.4703390000
C   3.5913770000  3.5118820000 -1.5140870000
H   3.8588630000  1.3917640000 -1.7474080000
C   2.7950570000  4.5277480000 -0.9878150000
H   1.0169390000  4.9935890000  0.1365990000
H   4.4967480000  3.7578490000 -2.0622880000
H   3.0787150000  5.5675270000 -1.1253640000
C   3.0688210000 -0.8333520000 -0.6031720000
C   3.9391950000 -0.8267020000  0.4956490000
C   3.4119070000 -1.5731050000 -1.7382190000
C   5.1337670000 -1.5355860000  0.4536110000
H   3.6706710000 -0.2631470000  1.3868890000
C   4.6061420000 -2.2913530000 -1.7744500000
H   2.7562150000 -1.5902790000 -2.6036060000
C   5.4679820000 -2.2724810000 -0.6821250000
H   5.8008960000 -1.5205760000  1.3107980000
H   4.8623080000 -2.8641880000 -2.6614060000
H   6.3978280000 -2.8333380000 -0.7130100000
C  -2.8420150000  1.3106400000 -0.1491280000
C  -3.8902000000  1.4749230000 -1.0629350000
C  -2.7172560000  2.2011530000  0.9189060000
C  -4.7906620000  2.5240050000 -0.9133770000
H  -4.0071680000  0.7732430000 -1.8853290000
C  -3.6204040000  3.2518130000  1.0682510000
H  -1.9117930000  2.0532150000  1.6339000000
C  -4.6553060000  3.4147830000  0.1516930000
H  -5.6022770000  2.6461460000 -1.6255290000
H  -3.5184000000  3.9372030000  1.9051820000
H  -5.3624510000  4.2314520000  0.2687920000
C  -2.6323420000 -1.4410690000 -0.8292430000
C  -3.6479590000 -1.8459030000  0.0465790000
C  -2.3928610000 -2.1961790000 -1.9798440000
C  -4.4136820000 -2.9717170000 -0.2320210000
H  -3.8357870000 -1.2727790000  0.9514510000
C  -3.1572530000 -3.3287710000 -2.2555640000
H  -1.6070510000 -1.9101350000 -2.6728450000
C  -4.1699620000 -3.7181590000 -1.3849810000
H  -5.2017550000 -3.2699430000  0.4539980000
H  -2.9594580000 -3.9047950000 -3.1555440000
H  -4.7662970000 -4.6003320000 -1.6001530000
Rh  0.0070920000 -0.4278750000  1.2474760000
H  -1.1875030000 -0.8505770000  2.2127020000
C   0.3965960000  0.8758840000  2.5369570000
O   0.6107700000  1.6439350000  3.3797530000
C   0.9884010000 -2.2549800000  1.9396710000
H   2.0610130000 -2.1461790000  1.7785730000
C   0.2008590000 -2.5574220000  0.8071600000
H   0.6845190000 -2.7350510000 -0.1527130000
H  -0.7532770000 -3.0670960000  0.9305520000
C   0.6143160000 -2.7117170000  3.3260840000
H   0.9562020000 -2.0086820000  4.0928210000
H  -0.4711630000 -2.8135700000  3.4257790000
H   1.0705160000 -3.6891940000  3.5431650000
