83
LPP6 3ea; extracted from final Gaussian last_standard_orientation
C   2.1593850000  3.1087610000  0.7083010000
H   2.4622720000  2.9853370000 -0.3379530000
H   3.0198860000  3.5721430000  1.2039540000
C   1.8968560000  1.7432440000  1.3742260000
H   0.9446200000  1.7616620000  1.9165680000
H   2.6792860000  1.5497580000  2.1154630000
P  -1.9493650000  0.1476120000 -0.4670720000
P   1.9075310000  0.2208730000  0.2689190000
Rh  0.0767560000 -0.9584620000 -0.8975940000
H  -0.9019860000 -1.9258020000 -1.6352610000
C   0.1150840000 -2.3822580000  0.3359510000
O  -0.0174750000 -3.3143880000  1.0104220000
C  -3.4185890000 -0.8910900000 -0.8561860000
C  -4.4266600000 -0.5261350000 -1.7508490000
C  -3.5209200000 -2.1239640000 -0.1961810000
C  -5.5107280000 -1.3733220000 -1.9838500000
H  -4.3848220000  0.4222530000 -2.2767230000
C  -4.6022380000 -2.9651130000 -0.4241720000
H  -2.7405670000 -2.4254200000  0.4979810000
C  -5.6027050000 -2.5924730000 -1.3223740000
H  -6.2847840000 -1.0723350000 -2.6848100000
H  -4.6620260000 -3.9171590000  0.0961280000
H  -6.4468370000 -3.2517110000 -1.5047240000
C  -2.3770060000  0.5331680000  1.2823330000
C  -1.3998230000  0.3585420000  2.2633980000
C  -3.6691550000  0.9044090000  1.6770680000
C  -1.6827540000  0.6015920000  3.6061250000
H  -0.4221020000 -0.0072360000  1.9635010000
C  -3.9543270000  1.1501260000  3.0153380000
H  -4.4578350000  0.9905960000  0.9345990000
C  -2.9584740000  1.0089690000  3.9827090000
H  -0.9102670000  0.4556160000  4.3568090000
H  -4.9589340000  1.4435010000  3.3076340000
H  -3.1859570000  1.1963200000  5.0285000000
C   2.5066770000 -1.0333310000  1.4735940000
C   3.1674100000 -2.1716370000  0.9906670000
C   2.2211670000 -0.9520800000  2.8386700000
C   3.5466860000 -3.1906610000  1.8543410000
H   3.3756650000 -2.2589880000 -0.0725790000
C   2.5863310000 -1.9843780000  3.7027790000
H   1.7037310000 -0.0872310000  3.2438630000
C   3.2525550000 -3.1026890000  3.2151330000
H   4.0634640000 -4.0626680000  1.4631390000
H   2.3482100000 -1.9079740000  4.7602230000
H   3.5389420000 -3.9053100000  3.8888110000
C   3.4594830000  0.6031500000 -0.6485220000
C   3.3822890000  1.2054980000 -1.9094080000
C   4.7227310000  0.4134520000 -0.0753340000
C   4.5347100000  1.5927270000 -2.5888200000
H   2.4132310000  1.3763190000 -2.3655010000
C   5.8750270000  0.7976610000 -0.7543800000
H   4.8083120000 -0.0399680000  0.9075700000
C   5.7851730000  1.3849920000 -2.0145110000
H   4.4516120000  2.0538780000 -3.5690450000
H   6.8468710000  0.6389910000 -0.2948180000
H   6.6860570000  1.6813900000 -2.5445410000
C   1.2772520000 -1.2906730000 -2.6623790000
H   2.3101960000 -1.0070810000 -2.4649010000
C   0.3503510000 -0.2383870000 -2.9053390000
H   0.6750120000  0.7994580000 -2.9518090000
H  -0.5132980000 -0.4453590000 -3.5371150000
C   1.1480610000 -2.6345160000 -3.3357650000
H   1.6952090000 -2.6432900000 -4.2907750000
H   0.0999240000 -2.8737380000 -3.5444830000
H   1.5549500000 -3.4396550000 -2.7141560000
C  -3.1681950000  2.7896400000 -1.1539150000
H  -4.1679720000  2.3827180000 -0.9534300000
H  -3.2769700000  3.4118090000 -2.0546190000
C  -2.2072740000  1.6553350000 -1.5191570000
H  -2.4955120000  1.2239440000 -2.4865360000
H  -1.2032670000  2.0407230000 -1.6895710000
C   0.9685460000  4.0597410000  0.7581530000
H   0.6720370000  4.2406710000  1.8016650000
H   1.2665040000  5.0332420000  0.3449130000
C  -0.2113940000  3.5037200000 -0.0196520000
H   0.1445900000  3.2499320000 -1.0266210000
H  -0.5064180000  2.5525590000  0.4422020000
C  -2.7772620000  3.7040770000  0.0103000000
H  -2.7845800000  3.1381400000  0.9476770000
H  -3.5718260000  4.4562130000  0.1072640000
C  -1.4336080000  4.4269640000 -0.0963320000
H  -1.3960290000  5.0297320000 -1.0143000000
H  -1.3832730000  5.1442810000  0.7346810000
