74
LPP4 3ea; extracted from final Gaussian last_standard_orientation
C  -1.7187660000 -0.0350610000  2.4741810000
H  -1.1183850000  0.8215810000  2.7965060000
H  -2.7406680000  0.2000940000  2.7964340000
C  -1.2169270000 -1.3281950000  3.1361200000
H  -1.2494060000 -2.1659890000  2.4284890000
H  -1.9189440000 -1.5917310000  3.9373940000
C   0.1825530000 -1.2568260000  3.7505750000
H   0.2419570000 -0.3905070000  4.4252860000
H   0.3050850000 -2.1444020000  4.3844710000
P  -1.7596280000  0.0453830000  0.6180240000
P   1.8431270000  0.0001480000  0.2761440000
Rh -0.0644200000 -0.6276290000 -0.9047050000
H   0.9782960000 -1.0311040000 -2.0203670000
C  -2.1865270000  1.8265630000  0.4775910000
C  -1.1656370000  2.7424500000  0.2072310000
C  -3.4805250000  2.3004550000  0.7177560000
C  -1.4307350000  4.1083980000  0.1753930000
H  -0.1621400000  2.3796870000  0.0055530000
C  -3.7470370000  3.6661470000  0.6764540000
H  -4.2843170000  1.5989960000  0.9249430000
C  -2.7233160000  4.5725690000  0.4063930000
H  -0.6256460000  4.8053370000 -0.0417190000
H  -4.7579520000  4.0231570000  0.8539790000
H  -2.9350240000  5.6377700000  0.3719100000
C  -3.3590580000 -0.7622520000  0.2309740000
C  -3.8921700000 -0.5758030000 -1.0526660000
C  -4.0341760000 -1.5964330000  1.1251020000
C  -5.0797280000 -1.1931550000 -1.4229730000
H  -3.3671130000  0.0542510000 -1.7655290000
C  -5.2194750000 -2.2281600000  0.7471580000
H  -3.6433640000 -1.7665280000  2.1234720000
C  -5.7462660000 -2.0259330000 -0.5234560000
H  -5.4828450000 -1.0307580000 -2.4187180000
H  -5.7295420000 -2.8779540000  1.4530110000
H  -6.6703560000 -2.5165810000 -0.8159170000
C   3.3030540000 -1.1182370000  0.1331650000
C   3.5157530000 -1.8216390000 -1.0567010000
C   4.2353960000 -1.2642540000  1.1676080000
C   4.6291300000 -2.6420040000 -1.2130230000
H   2.7920510000 -1.7268330000 -1.8614220000
C   5.3446280000 -2.0918920000  1.0172900000
H   4.1036320000 -0.7355270000  2.1066990000
C   5.5459840000 -2.7827910000 -0.1745920000
H   4.7749020000 -3.1780680000 -2.1469540000
H   6.0522760000 -2.1963660000  1.8354270000
H   6.4110430000 -3.4297330000 -0.2915660000
C   2.6199290000  1.6235220000 -0.1416630000
C   2.1577700000  2.3469720000 -1.2432790000
C   3.6772730000  2.1505100000  0.6105180000
C   2.7195810000  3.5783590000 -1.5757760000
H   1.3500630000  1.9357440000 -1.8408670000
C   4.2380560000  3.3800070000  0.2831090000
H   4.0822400000  1.5953300000  1.4518880000
C   3.7567680000  4.1004690000 -0.8093380000
H   2.3436620000  4.1262280000 -2.4356000000
H   5.0558800000  3.7755550000  0.8795070000
H   4.1950350000  5.0616930000 -1.0635870000
C   1.3452510000 -1.2296120000  2.7583350000
H   1.1555080000 -1.9853330000  1.9864160000
H   2.2512030000 -1.5659040000  3.2743110000
C   1.6396280000  0.1345290000  2.1079620000
H   2.5080530000  0.6094170000  2.5774530000
H   0.8154030000  0.8409100000  2.2420800000
C  -0.6887290000  0.5487120000 -2.2186170000
O  -1.0523590000  1.2019690000 -3.1063660000
C  -0.0354660000 -2.7574090000 -0.3882090000
C  -0.9724290000 -2.5427230000 -1.4225320000
H  -0.3862890000 -2.9426500000  0.6234250000
H   0.9306940000 -3.2048500000 -0.6182770000
H  -2.0239010000 -2.5062140000 -1.1401350000
C  -0.7384280000 -3.0121840000 -2.8358780000
H  -1.2186030000 -2.3542780000 -3.5681530000
H   0.3311700000 -3.0479540000 -3.0690350000
H  -1.1505440000 -4.0224800000 -2.9759100000
