69
LPP8 3ea; extracted from final Gaussian last_standard_orientation
C   2.3291270000  1.6077590000  0.5098490000
C   2.2913030000  2.3409030000  1.6986640000
H   1.7472950000  1.9613000000  2.5574230000
C   2.9361200000  3.5727480000  1.7852170000
H   2.8901570000  4.1378300000  2.7121170000
C   3.6327680000  4.0797230000  0.6921700000
C   3.6723140000  3.3567920000 -0.4984320000
H   4.2014110000  3.7514150000 -1.3612150000
C   3.0141390000  2.1355230000 -0.5931980000
H   3.0170620000  1.5913580000 -1.5347730000
C  -2.5245450000  1.4880430000  0.0951870000
C  -2.6794050000  2.2377940000  1.2636410000
H  -2.2585210000  1.8835090000  2.1995800000
C  -3.3686910000  3.4492540000  1.2344040000
H  -3.4759350000  4.0277560000  2.1480250000
C  -3.9173150000  3.9159050000  0.0438760000
C  -3.7656440000  3.1728150000 -1.1264350000
H  -4.1818670000  3.5358700000 -2.0620140000
C  -3.0647600000  1.9730320000 -1.1036010000
H  -2.9201680000  1.4072370000 -2.0210040000
C   2.8203690000 -1.2344300000  0.5016320000
C   2.4765090000 -2.5324070000  0.9031350000
H   1.4465100000 -2.7625490000  1.1635440000
C   3.4476850000 -3.5236910000  0.9932470000
H   3.1676380000 -4.5239070000  1.3119420000
C   4.7736230000 -3.2346580000  0.6769930000
C   5.1228380000 -1.9479110000  0.2766160000
H   6.1559930000 -1.7126760000  0.0362670000
C   4.1531140000 -0.9519520000  0.1888310000
H   4.4401660000  0.0517600000 -0.1098780000
C   0.4978330000 -0.2476360000  1.8122000000
C   1.0928510000 -0.4405100000  3.0641670000
H   2.1758540000 -0.4263670000  3.1537480000
C   0.3055680000 -0.6787600000  4.1852500000
H   0.7743590000 -0.8330210000  5.1529350000
C  -2.9672540000 -1.3347020000  0.0415990000
C  -2.6235660000 -2.6730550000 -0.1818010000
H  -1.5915580000 -2.9216820000 -0.4128480000
C  -3.5932750000 -3.6676550000 -0.1225630000
H  -3.3159120000 -4.7037110000 -0.2971130000
C  -4.9199560000 -3.3342110000  0.1475900000
C  -5.2702310000 -2.0038480000  0.3611190000
H  -6.3036230000 -1.7385460000  0.5674940000
C  -4.2986530000 -1.0058620000  0.3122370000
H  -4.5780090000  0.0301230000  0.4810770000
C  -0.8969730000 -0.3053070000  1.6883930000
C  -1.6800140000 -0.5625930000  2.8187400000
H  -2.7594630000 -0.6410120000  2.7181200000
C  -1.0822020000 -0.7418350000  4.0615390000
H  -1.6975330000 -0.9456820000  4.9333300000
P   1.4836180000  0.0002790000  0.2822800000
P  -1.6158460000 -0.0983560000  0.0050580000
Rh  0.0667150000 -0.1679270000 -1.5565880000
H  -1.0421780000 -0.3542710000 -2.6849610000
C   0.2469120000  1.5701520000 -2.2638890000
O   0.2811400000  2.6157480000 -2.7569370000
C   1.3373230000 -1.4662580000 -2.7354600000
H   2.3625410000 -1.3790700000 -2.3708870000
C   0.4591760000 -2.2667950000 -1.9616350000
H   0.8493610000 -2.8099060000 -1.1036830000
H  -0.3845650000 -2.7464130000 -2.4552360000
C   1.2044180000 -1.3462320000 -4.2317880000
H   1.7764560000 -2.1396460000 -4.7364200000
H   0.1571450000 -1.4354220000 -4.5387100000
H   4.1343190000  5.0407640000  0.7630260000
H   5.5320300000 -4.0093600000  0.7461470000
H  -4.4547520000  4.8599130000  0.0242310000
H  -5.6796340000 -4.1101050000  0.1856730000
H   1.5784960000 -0.3844270000 -4.5990190000
