78
LPP17 3ea; extracted from final Gaussian last_standard_orientation
P   2.0282930000  0.0769630000 -0.1380750000
P  -2.0085600000  0.0373530000  0.0449280000
O   0.0527410000 -0.2764960000  1.8211040000
C   0.8736000000 -1.9626330000  3.1265620000
C  -0.5904850000 -1.9965540000  3.1807620000
C   1.1589700000 -0.9557750000  2.1949270000
C  -0.9884710000 -1.0114770000  2.2673420000
C   2.3162390000 -0.8026890000  1.4573700000
C  -2.2014460000 -0.9211090000  1.6110830000
C   1.9536730000 -2.7567090000  3.5226120000
C  -1.6046700000 -2.8253410000  3.6684930000
C   3.3701450000 -1.6301750000  1.8588910000
C  -3.1934130000 -1.7674940000  2.1176820000
C   3.1910560000 -2.5488910000  2.9060930000
C  -2.8959440000 -2.6632390000  3.1583780000
C   3.6035950000 -0.3269660000 -0.9903000000
C   2.2718960000  1.8411880000  0.2898120000
C  -2.1544680000  1.7540060000  0.6640610000
C  -3.5968690000 -0.2156770000 -0.8244060000
C   4.7730800000  0.4061070000 -0.7600730000
C   2.2222590000  2.7717170000 -0.7568490000
C  -3.2181340000  2.1270570000  1.4952400000
C  -4.2256000000  0.8627230000 -1.4573380000
C   3.6583190000 -1.4495920000 -1.8229580000
C   2.4449000000  2.2964130000  1.5980770000
C  -1.1792320000  2.6929770000  0.3308390000
C  -4.1375270000 -1.4993420000 -0.9789000000
C   5.9712030000  0.0270980000 -1.3597480000
C   2.3582160000  4.1305190000 -0.4982560000
C  -3.3035100000  3.4271110000  1.9778100000
C  -5.3740810000  0.6631100000 -2.2173940000
C   4.8582270000 -1.8315150000 -2.4159790000
C   2.5625700000  3.6609990000  1.8576910000
C  -1.2632220000  3.9956360000  0.8192420000
C  -5.2914380000 -1.6942070000 -1.7329400000
C   6.0162950000 -1.0920650000 -2.1881090000
C   2.5247260000  4.5792710000  0.8129610000
C  -2.3241940000  4.3630350000  1.6405150000
C  -5.9124280000 -0.6139780000 -2.3545930000
H   1.8323470000 -3.5561430000  4.2475190000
H  -1.3969180000 -3.6110460000  4.3886130000
H   4.3156460000 -1.6013380000  1.3249060000
H  -4.1884060000 -1.7693220000  1.6834980000
H   4.0312620000 -3.1718110000  3.1991630000
H  -3.6899480000 -3.3028780000  3.5328320000
H   4.7459370000  1.2770540000 -0.1114870000
H   2.0677170000  2.4254940000 -1.7764940000
H  -3.9772460000  1.3964780000  1.7635280000
H  -3.8174880000  1.8638610000 -1.3529540000
H   2.7533890000 -2.0200130000 -2.0105900000
H   2.4911320000  1.5849000000  2.4176750000
H  -0.3468390000  2.3947260000 -0.2977340000
H  -3.6613480000 -2.3533870000 -0.5060070000
H   6.8712380000  0.6083480000 -1.1785700000
H   2.3256270000  4.8413320000 -1.3194200000
H  -4.1310480000  3.7118200000  2.6218760000
H  -5.8498930000  1.5110180000 -2.7021630000
H   4.8856090000 -2.7043370000 -3.0625500000
H   2.6896600000  4.0038300000  2.8808890000
H  -0.4889120000  4.7121650000  0.5616350000
H  -5.7021110000 -2.6947560000 -1.8363630000
H   6.9516270000 -1.3854900000 -2.6567780000
H   2.6226980000  5.6420300000  1.0167330000
H  -2.3899860000  5.3776550000  2.0241880000
H  -6.8110220000 -0.7672960000 -2.9454880000
Rh -0.0199600000 -0.4564720000 -1.3567160000
H   1.0634870000 -0.7979360000 -2.4322390000
C  -0.4800840000  0.9038520000 -2.5443870000
O  -0.7335640000  1.7044180000 -3.3451560000
C  -0.0123920000 -2.5730740000 -0.8427480000
C  -0.8370950000 -2.3690360000 -1.9735230000
H  -0.4559040000 -2.7304560000  0.1394050000
H   0.9637480000 -3.0395220000 -0.9695320000
H  -1.9132260000 -2.3330160000 -1.8143450000
C  -0.4555780000 -2.8534860000 -3.3487910000
H  -0.8572520000 -2.2036340000 -4.1329470000
H   0.6326730000 -2.8896780000 -3.4690650000
H  -0.8495670000 -3.8662920000 -3.5208030000
