85
LPP18 3ea; extracted from final Gaussian last_standard_orientation
C   5.8853670000  0.0093460000 -1.3608980000
C   6.0965030000 -1.3417970000 -1.6282840000
C   4.6292140000  0.4559790000 -0.9616470000
C   5.0440810000 -2.2428450000 -1.4929960000
C   1.9639140000  3.5084030000 -2.4489180000
C   1.5477000000  4.5073250000 -1.5682480000
C   2.1251120000  2.2025130000 -1.9999420000
C   3.5585150000 -0.4388940000 -0.8442200000
C   3.7831810000 -1.7931750000 -1.1074320000
C   1.2844250000  4.1833410000 -0.2412700000
C   1.8816630000  1.8708080000 -0.6587250000
C   1.4461040000  2.8753660000  0.2102780000
C   2.3124430000 -2.0940060000  2.6481110000
C   1.7065010000 -3.0558280000  3.4471510000
C   1.7768380000 -0.8086480000  2.5257450000
C   0.5461990000 -2.7390150000  4.1496650000
C   0.6993960000  1.9334530000  3.7872490000
C   0.6070260000 -0.4887390000  3.2363120000
C   0.2256190000  3.2382330000  3.7186670000
C   0.0086770000 -1.4603050000  4.0459120000
C   0.0265150000  0.8790810000  3.1554100000
C  -0.9461500000  3.5035770000  3.0131300000
C  -1.1686210000  1.1428070000  2.4625860000
C  -1.6344750000  2.4630480000  2.4022540000
C  -3.8091220000 -1.2862600000 -1.5989820000
C  -4.8387530000 -2.1632330000 -1.9157670000
C  -3.2571540000 -1.2665470000 -0.3106690000
C  -5.3304380000 -3.0447950000 -0.9526000000
C  -3.7542740000 -2.1552200000  0.6466430000
C  -4.7853650000 -3.0384500000  0.3263730000
C  -2.4538880000  1.4245580000 -0.6116820000
C  -1.6045930000  2.3175610000 -1.2644150000
C  -3.7839050000  1.7977200000 -0.3701690000
C  -2.0705090000  3.5700380000 -1.6618320000
C  -4.2479500000  3.0458500000 -0.7675350000
C  -3.3883680000  3.9366170000 -1.4127900000
H   6.7016500000  0.7196210000 -1.4622220000
H   7.0775000000 -1.6896450000 -1.9401610000
H   4.4785110000  1.5104520000 -0.7476120000
H   2.1615070000  3.7459500000 -3.4906530000
H   5.1995500000 -3.2990920000 -1.6959140000
H   1.4215050000  5.5278790000 -1.9193790000
H   2.4389830000  1.4299120000 -2.6974910000
H   3.2175230000 -2.3384910000  2.0961340000
H   0.9373780000  4.9445110000  0.4522180000
H   2.1395360000 -4.0492530000  3.5236160000
H   2.9593950000 -2.4951210000 -1.0164390000
H   1.1907760000  2.6509440000  1.2403730000
H  -1.3319210000  4.5170870000  2.9482740000
H  -3.4273420000 -0.6084370000 -2.3581710000
H  -5.2573040000 -2.1612840000 -2.9184170000
H  -2.5567460000  2.6714040000  1.8679780000
H  -0.5761270000  2.0359430000 -1.4605360000
H  -6.1325620000 -3.7338700000 -1.2014970000
H  -3.3405910000 -2.1770000000  1.6500030000
H  -5.1583280000 -3.7234710000  1.0828800000
H  -4.4599360000  1.1045350000  0.1245540000
H  -1.3928190000  4.2538160000 -2.1640260000
H  -5.2812290000  3.3240180000 -0.5783140000
H  -3.7520580000  4.9120060000 -1.7246580000
P   1.9228450000  0.0989070000 -0.1769990000
P  -1.8093420000 -0.1790150000 -0.0037710000
Rh  0.1078410000 -1.0953250000 -1.0538580000
C  -0.2884350000 -0.3474780000 -2.7225520000
O  -0.4702050000  0.0540050000 -3.7946640000
H   1.2440020000 -1.8187920000 -1.8631560000
H   1.6099040000  1.7130460000  4.3389820000
H   0.7642830000  4.0397370000  4.2162590000
H  -0.8829600000 -1.1969770000  4.6101520000
H   0.0691720000 -3.4790250000  4.7860480000
C  -1.9768250000  0.0415830000  1.8413250000
H  -3.0421510000  0.2081120000  2.0391890000
H  -1.7025210000 -0.9202220000  2.2811740000
C   2.4450300000  0.1907770000  1.6352740000
H   2.2632890000  1.2069530000  1.9838900000
H   3.5279350000  0.0390990000  1.6440290000
C   0.0950030000 -2.8830030000  0.1998370000
C  -0.6514300000 -3.1427140000 -0.9710230000
H  -0.4045530000 -2.6969380000  1.1486820000
H   1.0860570000 -3.3188980000  0.3076220000
H  -1.7356840000 -3.0951780000 -0.8984710000
C  -0.1612990000 -4.0860080000 -2.0400320000
H  -0.5125900000 -3.7938380000 -3.0351110000
H   0.9333380000 -4.1220560000 -2.0687640000
H  -0.5289320000 -5.1044110000 -1.8443620000
