95
LPP16 3ea; extracted from final Gaussian last_standard_orientation
Rh  0.2648960000 -1.6691140000 -0.6633150000
H  -0.8293200000 -2.5071030000 -1.4005890000
C   0.6402140000 -3.2803500000  0.1997150000
O   0.9042350000 -4.3646130000  0.5285280000
C   0.6610820000 -0.6204650000 -2.5303980000
H  -0.2072590000 -0.3802600000 -3.1346400000
C   1.2047280000 -1.9275720000 -2.5795890000
H   2.2771440000 -2.0454530000 -2.4447880000
P  -2.0255300000 -0.8169440000  0.1930290000
C  -3.3531510000 -0.9576590000 -1.1948400000
C  -2.7468340000 -1.7587490000  1.7162350000
C  -2.2390400000  0.9884590000  0.5812410000
C  -4.6515040000 -0.1857590000 -0.9371330000
C  -3.6792400000 -2.4272180000 -1.4795110000
C  -2.7377180000 -0.3737790000 -2.4670060000
C  -2.0915970000 -1.2074420000  2.9854770000
C  -2.3238540000 -3.2273340000  1.5896140000
C  -4.2671360000 -1.7540640000  1.9278500000
C  -1.3171860000  1.9030330000  0.0530210000
C  -3.3152130000  1.5493780000  1.2828590000
H  -5.1557660000 -0.4655290000 -0.0122700000
H  -4.4785110000  0.8935930000 -0.9189260000
H  -5.3427190000 -0.3959740000 -1.7640850000
H  -4.2756410000 -2.8949020000 -0.6922120000
H  -2.7706810000 -3.0206530000 -1.6256920000
H  -4.2650340000 -2.4824330000 -2.4066060000
H  -2.3256690000  0.6297470000 -2.3112980000
H  -1.9430160000 -1.0195820000 -2.8382150000
H  -3.5164940000 -0.3033530000 -3.2379120000
H  -1.0087020000 -1.3447000000  2.9665870000
H  -2.3026980000 -0.1455700000  3.1458460000
H  -2.4775320000 -1.7631360000  3.8502540000
H  -1.2395510000 -3.3278960000  1.6110450000
H  -2.6871390000 -3.6998100000  0.6732100000
H  -2.7339210000 -3.7864470000  2.4409910000
H  -4.6893910000 -0.7648470000  2.1139310000
H  -4.8133000000 -2.2092870000  1.0999740000
H  -4.4797750000 -2.3566660000  2.8207850000
O  -0.1803050000  1.4017940000 -0.5093470000
C  -1.4965690000  3.2903910000  0.0750190000
C  -3.4727080000  2.9243360000  1.4092360000
H  -4.0546550000  0.9032600000  1.7350070000
C   0.9563540000  2.1493260000 -0.3914660000
C  -0.5220030000  4.1195690000 -0.7525690000
C  -2.5836310000  3.7935830000  0.7814120000
H  -4.3141810000  3.3203110000  1.9701840000
C   0.8634700000  3.5393040000 -0.5086830000
C   2.1535800000  1.4750940000 -0.1089620000
C  -0.8769600000  3.9294130000 -2.2433290000
C  -0.5947680000  5.6046310000 -0.4136780000
H  -2.7473990000  4.8647940000  0.8408990000
C   2.0328840000  4.2859940000 -0.4016780000
P   2.0929770000 -0.3121230000  0.3789580000
C   3.3041730000  2.2712380000 -0.0303340000
H  -0.8234390000  2.8751390000 -2.5319910000
H  -0.1767810000  4.4919980000 -2.8708800000
H  -1.8928980000  4.2904130000 -2.4383990000
H   0.0894600000  6.1775520000 -1.0466580000
H  -0.3423250000  5.7956600000  0.6348120000
H  -1.6003750000  5.9909530000 -0.6062150000
C   3.2520990000  3.6515650000 -0.1868300000
H   1.9978600000  5.3675740000 -0.4833130000
C   1.9638940000 -0.0675580000  2.2733730000
C   3.8353620000 -0.9935610000 -0.0495030000
H   4.2602950000  1.8150880000  0.1879130000
H   4.1641970000  4.2365340000 -0.1141610000
C   3.0775110000  0.7275010000  2.9604410000
C   1.8432290000 -1.4465280000  2.9226420000
C   0.6734740000  0.7244370000  2.4925970000
C   4.9898300000 -0.6720440000  0.9074440000
C   4.2201970000 -0.4943710000 -1.4522980000
C   3.7342540000 -2.5248120000 -0.0781240000
H   3.9987670000  0.1602950000  3.0885210000
H   3.3034930000  1.6603300000  2.4345170000
H   2.7248500000  0.9995020000  3.9641040000
H   2.7583060000 -2.0364250000  2.8026220000
H   1.0126790000 -2.0178720000  2.4976320000
H   1.6655350000 -1.3286430000  3.9997420000
H   0.8043960000  1.7778440000  2.2246240000
H  -0.1532810000  0.3248310000  1.9076110000
H   0.3955490000  0.6810470000  3.5532280000
H   5.1232300000  0.3901620000  1.1202370000
H   4.8828210000 -1.1987570000  1.8599440000
H   5.9181010000 -1.0321750000  0.4443970000
H   3.3895940000 -0.5226290000 -2.1599620000
H   4.5985730000  0.5301860000 -1.4383380000
H   5.0183390000 -1.1366320000 -1.8467140000
H   3.0210010000 -2.8802190000 -0.8211700000
H   3.4311480000 -2.9323370000  0.8910230000
H   4.7234880000 -2.9367090000 -0.3171610000
H   1.3126660000  0.2331890000 -2.3531390000
C   0.6297080000 -2.9936070000 -3.4816900000
H   0.7522700000 -3.9961620000 -3.0572230000
H  -0.4397240000 -2.8341740000 -3.6573890000
H   1.1383520000 -2.9812370000 -4.4570800000
