79
LPP19 3ea; extracted from final Gaussian last_input_orientation
H   0.9933630000  2.3162360000  2.7896030000
H   0.6090800000  4.5476920000  3.7620670000
H  -3.9011270000 -1.1707890000 -0.8529360000
H  -5.8213380000 -2.7128170000 -1.1068480000
H   4.8180550000 -0.6382710000  2.0557980000
H   3.5365040000  0.5542670000  0.3564450000
H   1.2081960000 -1.2882950000  4.2746830000
H   3.6564320000 -1.5506640000  4.0751640000
H  -3.5587530000 -1.4816730000  1.9723380000
H  -4.1553150000 -0.3595540000  4.0709290000
H  -2.4176490000  0.9150700000  5.3350920000
H  -0.0949620000  0.9513110000  4.4932610000
C   0.5863750000  2.9334270000  0.7674730000
C   0.7152470000  3.1404930000  2.1424120000
C   0.5074910000  4.4048980000  2.6897040000
C   0.1820560000  5.4802330000  1.8691240000
C  -3.8154230000 -2.2041680000 -0.5295720000
C  -4.8923070000 -3.0741990000 -0.6744300000
C  -0.5413310000  0.3188450000 -2.8222450000
C   3.7443290000 -0.5278920000  2.1772590000
C   3.0087350000  0.1412570000  1.2071100000
C   1.6191780000  0.3051110000  1.3022970000
C   0.9593580000 -0.2398330000  2.4255830000
C   1.7266680000 -0.8790000000  3.4119170000
C   3.1003110000 -1.0336370000  3.2983220000
C  -0.5010870000 -0.1971490000  2.7304980000
C  -1.4916340000 -0.8902210000  2.0001830000
C  -2.7921960000 -0.9402360000  2.5168300000
C  -3.1341520000 -0.3026610000  3.7045050000
C  -2.1680990000  0.4031860000  4.4102460000
C  -0.8651560000  0.4335800000  3.9272130000
O  -0.2777040000  0.2400210000 -3.9488220000
P   0.7583560000  1.2846270000 -0.0171870000
H   1.8748340000 -0.4019470000 -2.0569300000
H   3.7544990000 -0.1906900000 -3.6402860000
H   4.5856000000  3.7391150000 -2.1139680000
H   2.7258800000  3.5154900000 -0.5161190000
H  -0.1718680000  6.1241010000 -0.1580430000
H   0.1879990000  3.8843460000 -1.1282430000
H  -3.4726540000 -5.8935780000  0.5750400000
H  -1.5729600000 -4.3510620000  0.8483050000
H  -2.4813480000 -0.1325480000 -1.7745580000
H   0.5577530000 -2.2558860000 -1.7912620000
H   2.5154070000 -3.7837880000 -1.8942930000
H   2.0898250000 -4.5841930000  2.3068930000
H   0.1220250000 -3.0877650000  2.3936830000
C   2.1442520000  1.5528680000 -1.1979920000
C   2.4596090000  0.5118700000 -2.0794460000
C   3.5250920000  0.6283480000 -2.9643970000
C   4.2884710000  1.7939690000 -2.9887380000
C   3.9898390000  2.8304130000 -2.1093130000
C   2.9315540000  2.7080230000 -1.2110200000
C   0.0695790000  5.2885260000  0.4929850000
C   0.2629690000  4.0244540000 -0.0525580000
C  -2.6096620000 -2.6465700000  0.0254810000
C  -4.7741440000 -4.4037780000 -0.2775650000
C  -3.5755830000 -4.8560490000  0.2688790000
C  -2.5020150000 -3.9837520000  0.4237330000
C   0.2183160000 -2.5695730000  0.3050370000
C   0.8984560000 -2.7759920000 -0.8986730000
C   1.9948090000 -3.6307250000 -0.9528630000
C   2.4289340000 -4.2789170000  0.2015520000
C   1.7532740000 -4.0824640000  1.4037400000
C   0.6476910000 -3.2382920000  1.4546190000
P  -1.2297780000 -1.4512930000  0.2676680000
Rh -1.1961980000  0.4417850000 -1.0693330000
C  -2.5848290000  1.5316890000  0.2104460000
C  -2.4280190000  2.2544710000 -0.9894750000
H  -2.0800940000  1.8587340000  1.1176280000
H  -3.5012900000  0.9694440000  0.3840270000
H  -1.7696350000  3.1184660000 -0.9595270000
C  -3.5233830000  2.3581890000 -2.0198300000
H  -3.1227690000  2.4403500000 -3.0356950000
H  -4.1799310000  1.4819130000 -1.9900720000
H  -4.1399400000  3.2498250000 -1.8322700000
H   5.1147140000  1.8912850000 -3.6874590000
H   0.0226940000  6.4659250000  2.2971780000
H   3.2938380000 -4.9355530000  0.1650320000
H  -5.6107480000 -5.0864290000 -0.3987980000
