83
LPP11 3ea; extracted from final Gaussian last_standard_orientation
Rh  0.2528160000 -1.5531870000 -0.0797290000
H  -0.7611030000 -2.7439120000 -0.1567690000
C   0.7596550000 -2.2951520000  1.5573140000
O   1.0502780000 -2.8998350000  2.5067750000
C   1.2831830000 -2.8393720000 -1.4997440000
C   0.3507870000 -2.0433700000 -2.2065590000
H  -0.5653840000 -2.5108610000 -2.5618760000
P  -1.8029200000 -0.3568820000  0.0464070000
C  -2.9437120000 -1.1702560000  1.3691260000
C  -2.8322990000 -0.0796950000 -1.5329920000
C  -1.7589550000  1.3446040000  0.7878280000
C  -3.0065990000 -2.6907840000  1.1773800000
C  -4.3826860000 -0.6460320000  1.4041240000
C  -2.3201940000 -0.9197150000  2.7488570000
C  -1.8768520000  0.4955270000 -2.5833950000
C  -3.9811090000  0.9266960000 -1.4016260000
C  -3.3729820000 -1.4214550000 -2.0303390000
C  -1.2368750000  2.6066480000  0.1409200000
H  -1.1900900000  1.1770490000  1.7011720000
H  -2.7789790000  1.5602740000  1.1195150000
H  -2.0419100000 -3.1580480000  1.3828500000
H  -3.7400830000 -3.0996080000  1.8850970000
H  -3.3145100000 -2.9839340000  0.1705200000
H  -4.8769850000 -1.0520110000  2.2962560000
H  -4.9626030000 -0.9766960000  0.5383620000
H  -4.4472680000  0.4446000000  1.4715020000
H  -2.4258440000  0.1184040000  3.0791570000
H  -2.8361550000 -1.5490240000  3.4851680000
H  -1.2613000000 -1.1920070000  2.7653160000
H  -1.0058340000 -0.1433950000 -2.7248270000
H  -2.4078610000  0.5796080000 -3.5408860000
H  -1.5424670000  1.5003320000 -2.3057030000
H  -3.6214810000  1.9112470000 -1.0871180000
H  -4.7694010000  0.6093610000 -0.7198760000
H  -4.4390630000  1.0535820000 -2.3917880000
H  -3.7643870000 -1.3020690000 -3.0492240000
H  -2.5916150000 -2.1870650000 -2.0543000000
H  -4.1929390000 -1.7888490000 -1.4060010000
C   0.0251510000  2.8250300000 -0.4607380000
C  -2.0838530000  3.7172060000  0.3080970000
C   1.0292050000  1.7983070000 -0.9417830000
C   0.3648500000  4.1456480000 -0.8066280000
C  -1.7347570000  5.0074080000 -0.0610840000
H  -3.0560120000  3.5523180000  0.7669120000
P   1.7438500000  0.3724370000  0.0278010000
H   1.8822240000  2.3669260000 -1.3251040000
H   0.5981920000  1.2889100000 -1.8114060000
C  -0.4804110000  5.2280440000 -0.6145070000
H   1.3371720000  4.3203140000 -1.2612400000
H  -2.4317540000  5.8260040000  0.0935770000
C   3.4120060000  0.1722570000 -0.9191510000
C   2.2240670000  1.1002650000  1.7325310000
H  -0.1624300000  6.2253900000 -0.9043480000
C   4.3967640000  1.3410450000 -0.8099040000
C   3.0974540000  0.0194110000 -2.4160460000
C   4.1189270000 -1.1085820000 -0.4334270000
C   2.6982940000  2.5577400000  1.6764020000
C   3.3025990000  0.2179520000  2.3701290000
C   1.0132890000  1.0853340000  2.6684150000
H   4.8270070000  1.4409940000  0.1883650000
H   5.2313220000  1.1525890000 -1.4979240000
H   3.9546420000  2.3014890000 -1.0965780000
H   2.5017630000 -0.8638880000 -2.6361680000
H   4.0469970000 -0.0904050000 -2.9555410000
H   2.5900530000  0.8940530000 -2.8342930000
H   3.4111570000 -1.8637280000 -0.0812450000
H   4.7003130000 -1.5425310000 -1.2566400000
H   4.8179750000 -0.9048670000  0.3806760000
H   1.9279760000  3.2122000000  1.2583260000
H   2.8932060000  2.8963600000  2.7028780000
H   3.6155210000  2.7016550000  1.1074820000
H   4.2735230000  0.3276410000  1.8844470000
H   3.0277980000 -0.8417610000  2.3587790000
H   3.4300610000  0.5164580000  3.4182450000
H   0.4826360000  0.1308460000  2.6518960000
H   1.3579750000  1.2647160000  3.6946650000
H   0.3217830000  1.8945800000  2.4228770000
H   0.6889260000 -1.2216780000 -2.8312120000
C   1.0892230000 -4.3238210000 -1.3130810000
H   0.0255690000 -4.5832820000 -1.2823250000
H   1.5502000000 -4.8792420000 -2.1436210000
H   1.5459200000 -4.6810790000 -0.3834140000
H   2.3296190000 -2.5544880000 -1.5648600000
