85
LPP21 3ea; extracted from final Gaussian last_standard_orientation
Rh -0.5567160000 -2.1602840000 -0.2324960000
P   1.4985260000 -1.0947060000  0.0569390000
P  -1.7833030000 -0.1381960000 -0.0693870000
O   1.2474480000  3.8712120000 -3.2413910000
O   1.9799940000  3.4306620000 -1.1032540000
O   0.3544550000  3.8279550000  1.5602730000
O   1.2646580000  3.6437460000  3.6633840000
C   1.4921130000  0.3332730000  1.2252010000
C   2.0654130000  0.2494280000  2.4936140000
H   2.5760140000 -0.6596330000  2.7877970000
C   2.0418300000  1.3131830000  3.4086520000
H   2.4867200000  1.2244290000  4.3936020000
C   1.4415930000  2.4742780000  2.9859470000
C   0.8878000000  2.5815190000  1.7163130000
C   0.8562070000  1.5392650000  0.8109310000
C   0.7594420000  4.5663690000  2.7063690000
H  -0.1038630000  5.0878120000  3.1259080000
H   1.5514300000  5.2724300000  2.4231880000
C  -0.9188090000  1.1565590000 -1.0376030000
C  -1.3506720000  1.4345890000 -2.3351980000
H  -2.2398990000  0.9423780000 -2.7141280000
C  -0.6795620000  2.3313790000 -3.1794400000
H  -1.0260320000  2.5300330000 -4.1874860000
C   0.4324960000  2.9497090000 -2.6594360000
C   0.8745200000  2.6819360000 -1.3696650000
C   0.2610810000  1.7716620000 -0.5299840000
C   2.3025860000  4.1045730000 -2.3130950000
H   3.2363750000  3.6969420000 -2.7166190000
H   2.3849580000  5.1777870000 -2.1192460000
C   2.8129950000 -2.2023890000  0.7069070000
C   2.5881250000 -2.8879440000  1.9091970000
H   1.6649050000 -2.7220420000  2.4531650000
C   3.5289580000 -3.7817820000  2.4074710000
C   4.7023020000 -4.0298170000  1.6973980000
C   4.9250060000 -3.3733060000  0.4915170000
C   3.9912170000 -2.4624160000  0.0003890000
H   4.1834260000 -1.9598670000 -0.9414490000
C   2.3378660000 -0.3097390000 -1.3782530000
C   1.8616670000 -0.5174620000 -2.6721770000
H   0.9844660000 -1.1370500000 -2.8200610000
C   2.4885970000  0.0850920000 -3.7602760000
C   3.6065540000  0.8906440000 -3.5628060000
C   4.0949820000  1.0962300000 -2.2718450000
C   3.4594960000  0.5070430000 -1.1847750000
H   3.8304360000  0.6834100000 -0.1784040000
C  -3.4609320000 -0.1836710000 -0.8239620000
C  -4.2519180000  0.9712450000 -0.8880600000
H  -3.8685460000  1.9116810000 -0.5021580000
C  -5.5235250000  0.9232460000 -1.4454890000
C  -6.0285270000 -0.2827730000 -1.9330970000
C  -5.2567450000 -1.4371550000 -1.8580220000
C  -3.9773850000 -1.3878750000 -1.3057450000
H  -3.3723970000 -2.2871650000 -1.2404840000
C  -2.2095620000  0.6933080000  1.5120930000
C  -2.1816900000  2.0826610000  1.6611770000
H  -1.8421140000  2.7108560000  0.8441020000
C  -2.5686980000  2.6729430000  2.8605180000
C  -3.0003080000  1.8838270000  3.9232740000
C  -3.0550010000  0.5000590000  3.7756210000
C  -2.6647040000 -0.0912550000  2.5777250000
H  -2.7305620000 -1.1685250000  2.4703810000
C  -0.9506960000 -2.4428930000 -2.0442010000
O  -1.1436920000 -2.7379160000 -3.1490800000
H   0.2894690000 -3.4873050000 -0.4043770000
H   4.0980620000  1.3583370000 -4.4117910000
H   5.4338870000 -4.7362650000  2.0796470000
H  -7.0245350000 -0.3194480000 -2.3658890000
H  -3.2992560000  2.3449470000  4.8605020000
H  -6.1249490000  1.8267520000 -1.4966320000
H  -5.6461280000 -2.3811440000 -2.2291470000
H   2.0986740000 -0.0728190000 -4.7618350000
H   4.9696030000  1.7214740000 -2.1113480000
H   3.3388790000 -4.2941540000  3.3467030000
H   5.8316230000 -3.5665670000 -0.0755210000
H  -2.5345860000  3.7547080000  2.9603400000
H  -3.4026210000 -0.1238070000  4.5944070000
C  -1.9500580000 -3.3294590000  0.9398240000
C  -0.8520260000 -2.9629910000  1.7584330000
H  -2.8764710000 -2.7627200000  1.0529860000
H  -0.1251720000 -3.7362620000  1.9979910000
H  -0.9391130000 -2.1812560000  2.5094830000
C  -2.1689630000 -4.7524020000  0.4928840000
H  -2.7713800000 -5.3051030000  1.2294080000
H  -1.2132000000 -5.2730670000  0.3735330000
H  -2.6955120000 -4.8008770000 -0.4669290000
