81
LPP23 3ea; extracted from final Gaussian last_input_orientation
P   1.9146060000  0.3279250000  0.2447730000
P  -1.6319580000  0.6719330000 -0.6418960000
O   2.4803580000  0.2702100000  1.8074840000
O   3.3157360000  0.6401040000 -0.5445280000
O   1.9048690000 -1.3015670000  0.0060950000
O  -1.8985960000 -0.5443850000 -1.7129640000
O  -2.2724730000  0.0853970000  0.7402020000
O  -2.9016250000  1.5777820000 -1.1950150000
C   4.5346900000  1.4977640000  1.9028720000
C   3.1905620000  1.3545840000  2.2774640000
C   2.5803040000  2.2373680000  3.1601240000
C   3.3158920000  3.2925660000  3.6903090000
C   4.6539520000  3.4559150000  3.3363330000
C   5.2539020000  2.5645190000  2.4534950000
C   5.1697350000  0.5270550000  0.9920360000
C   4.5226200000  0.0809850000 -0.1682550000
C   5.1087790000 -0.8423710000 -1.0243720000
C   6.3768100000 -1.3355510000 -0.7369780000
C   7.0487860000 -0.9009620000  0.4041020000
C   6.4468450000  0.0174000000  1.2563450000
C  -0.0758350000 -2.4589290000 -0.6533900000
C   0.8362940000 -2.0986070000  0.3421300000
C   0.7272640000 -2.5840010000  1.6420280000
C  -0.2934170000 -3.4742610000  1.9543120000
C  -1.1980320000 -3.8709230000  0.9704940000
C  -1.0952780000 -3.3546380000 -0.3171700000
C   0.0455370000 -1.9284460000 -2.0323490000
C  -0.8828760000 -1.0093640000 -2.5278900000
C  -0.8360080000 -0.5616320000 -3.8439600000
C   0.1785250000 -1.0096360000 -4.6831580000
C   1.1422340000 -1.8925750000 -4.1988280000
C   1.0699940000 -2.3480050000 -2.8867520000
C  -4.5733330000  0.7939950000  0.9505570000
C  -3.6127590000 -0.2244340000  0.9075610000
C  -3.9437700000 -1.5503560000  1.1501520000
C  -5.2610350000 -1.8879950000  1.4396340000
C  -6.2385400000 -0.8964120000  1.4883960000
C  -5.8925170000  0.4271450000  1.2454310000
C  -4.2248470000  2.2045000000  0.7052780000
C  -3.3919300000  2.5659930000 -0.3612800000
C  -3.1031470000  3.8961170000 -0.6414400000
C  -3.6368880000  4.8979700000  0.1615210000
C  -4.4565200000  4.5640810000  1.2379190000
C  -4.7491740000  3.2310600000  1.4999090000
H   1.5386660000  2.0825090000  3.4212050000
H   2.8410210000  3.9869260000  4.3771600000
H   5.2296770000  4.2816230000  3.7438750000
H   6.2929570000  2.6989800000  2.1652030000
H   4.5617330000 -1.1510950000 -1.9095410000
H   6.8382200000 -2.0581470000 -1.4037220000
H   8.0375350000 -1.2854830000  0.6360960000
H   6.9585720000  0.3386930000  2.1594950000
H  -0.3761590000 -3.8648010000  2.9642420000
H  -1.8076620000 -3.6460010000 -1.0837100000
H   0.2214810000 -0.6588620000 -5.7099770000
H   1.8086590000 -3.0480810000 -2.5073850000
H  -3.1541540000 -2.2922380000  1.1234480000
H  -5.5211110000 -2.9255620000  1.6283760000
H  -7.2703480000 -1.1536270000  1.7084870000
H  -6.6546850000  1.2012620000  1.2635470000
H  -2.4655200000  4.1303830000 -1.4859520000
H  -3.4066720000  5.9376000000 -0.0518070000
H  -4.8658370000  5.3421960000  1.8751060000
H  -5.3806350000  2.9671740000  2.3436570000
Rh  0.3175570000  1.8117350000 -0.2692740000
C  -0.4348030000  2.6939880000  1.2270710000
H   1.5349340000  2.7764040000  0.0528860000
O  -0.7778270000  3.2629130000  2.1694270000
C   0.1077260000  3.0647010000 -2.0879900000
C   1.0533270000  2.0572700000 -2.3347450000
H  -0.8955970000  2.9011710000 -2.4823680000
H   2.1134900000  2.2977960000 -2.3045440000
H   0.7929380000  1.1863110000 -2.9268150000
C   0.4847520000  4.5102740000 -1.8995500000
H   0.4385150000  5.0434210000 -2.8602160000
H   1.5033590000  4.5999810000 -1.5088870000
H  -0.1865000000  5.0216260000 -1.2020670000
H  -1.9856360000 -4.5809970000  1.2070530000
H   1.4544600000 -2.2661300000  2.3820090000
H   1.9428180000 -2.2362330000 -4.8469860000
H  -1.5890590000  0.1417200000 -4.1861390000
