117
LPP24 3ea; extracted from final Gaussian last_standard_orientation
P  -1.7007370000  0.0842570000 -0.0637440000
P   1.8225180000 -0.1679790000  0.8686950000
O  -2.3650730000  0.7586680000 -1.4363750000
O  -3.0460480000 -0.0124280000  0.8736070000
O  -1.7236960000 -1.4630020000 -0.6186840000
O   1.9378820000 -1.7300840000  1.3622250000
O   2.5111300000 -0.2049360000 -0.6157930000
O   3.1150960000  0.3380970000  1.7807860000
C  -4.4270070000  1.7597530000 -0.7885520000
C  -3.1350180000  1.8891150000 -1.2678210000
C  -2.5754350000  3.1325070000 -1.6204980000
C  -3.3188280000  4.2732870000 -1.4667390000
C  -4.6242010000  4.2172430000 -0.9191120000
C  -5.1829450000  2.9525900000 -0.5562940000
C  -4.9550500000  0.4052100000 -0.5031580000
C  -4.2392870000 -0.4406110000  0.3220790000
C  -4.6830510000 -1.7289360000  0.6728450000
C  -5.8670090000 -2.1909410000  0.1630940000
C  -6.6228270000 -1.4020460000 -0.7395660000
C  -6.1582790000 -0.0979810000 -1.0954360000
C   0.1507990000 -2.9071630000 -0.5020090000
C  -0.6709240000 -2.0825720000 -1.2409290000
C  -0.5289690000 -1.9256540000 -2.6355460000
C   0.4318540000 -2.6415530000 -3.2984630000
C   1.2803360000 -3.5369560000 -2.6002790000
C   1.1491030000 -3.6662520000 -1.1831650000
C  -0.0417640000 -3.0226600000  0.9639340000
C   0.8438950000 -2.4276980000  1.8372240000
C   0.7111800000 -2.5406520000  3.2370930000
C  -0.3508350000 -3.2271690000  3.7648230000
C  -1.3114420000 -3.8348000000  2.9186760000
C  -1.1461650000 -3.7516380000  1.5031060000
C   4.8399520000  0.3198510000 -0.3916620000
C   3.8434840000 -0.5433670000 -0.8021260000
C   4.1127400000 -1.7462580000 -1.4769110000
C   5.4103380000 -2.1086850000 -1.7195550000
C   6.4836730000 -1.3053050000 -1.2643640000
C   6.2022370000 -0.0858440000 -0.5749660000
C   4.4863360000  1.5874810000  0.2814260000
C   3.6685880000  1.5480010000  1.3948430000
C   3.3995700000  2.6908500000  2.1724220000
C   3.9047360000  3.9044630000  1.7868620000
C   4.6604300000  4.0288460000  0.5954850000
C   4.9518200000  2.8618730000 -0.1745370000
H  -1.5620700000  3.1555110000 -2.0077200000
H  -2.9041880000  5.2393240000 -1.7423440000
H  -4.0674680000 -2.3290920000  1.3341040000
H  -6.2261420000 -3.1826440000  0.4263230000
H   0.5496890000 -2.5357090000 -4.3735460000
H  -0.4702030000 -3.3071940000  4.8419890000
H   3.2823010000 -2.3583480000 -1.7996370000
H   5.6245760000 -3.0344100000 -2.2471200000
H   2.7991380000  2.5880880000  3.0679030000
H   3.7069320000  4.7927470000  2.3810290000
Rh -0.0332420000  1.1618850000  0.9592150000
C   0.7963060000  2.5039570000 -0.0897070000
H  -1.1907090000  2.2457580000  1.0382690000
O   1.1835580000  3.3690980000 -0.7452270000
C   0.2125060000  1.6124670000  3.1203710000
C  -0.7969310000  0.6508700000  2.9670640000
H   1.1943960000  1.2436050000  3.4170920000
H  -1.8401030000  0.9510540000  3.0297550000
H  -0.6055300000 -0.3944000000  3.1864700000
C  -0.0714290000  3.0424550000  3.4963970000
H  -0.0142150000  3.1667240000  4.5875160000
H  -1.0741720000  3.3383250000  3.1723000000
H   0.6445760000  3.7358910000  3.0436670000
H  -1.2008310000 -1.2474410000 -3.1512850000
H   1.4560160000 -2.0648940000  3.8676100000
C   5.1234630000  5.2900480000  0.1465480000
C   5.8242550000  5.4057500000 -1.0281080000
C   6.0841590000  4.2578170000 -1.8076850000
C   5.6611340000  3.0184330000 -1.3923600000
H   4.9003160000  6.1682380000  0.7474330000
H   6.1687130000  6.3787140000 -1.3665720000
H   6.6180880000  4.3561330000 -2.7486230000
H   5.8566630000  2.1442550000 -2.0040730000
C   7.8305280000 -1.7000180000 -1.4583480000
C   8.8656690000 -0.9415460000 -0.9713150000
C   8.5893990000  0.2427620000 -0.2546770000
C   7.2944670000  0.6589600000 -0.0604330000
C  -7.8185540000 -1.8946230000 -1.3183530000
C  -8.5205170000 -1.1494230000 -2.2330450000
C  -8.0425010000  0.1223720000 -2.6154540000
C  -6.8930810000  0.6339720000 -2.0629510000
C  -5.3789200000  5.3969440000 -0.7038950000
C  -6.6241660000  5.3434410000 -0.1287930000
C  -7.1613130000  4.0992370000  0.2669980000
C  -6.4605850000  2.9357290000  0.0600190000
H  -4.9439710000  6.3500440000 -0.9950060000
H  -7.1917230000  6.2549740000  0.0353070000
H  -8.1359750000  4.0616690000  0.7454870000
H  -6.8795860000  1.9871660000  0.3780840000
H  -8.1640410000 -2.8843480000 -1.0293570000
H  -9.4336350000 -1.5399320000 -2.6731950000
H  -8.5847470000  0.7001800000 -3.3586900000
H  -6.5312070000  1.6077610000 -2.3745280000
C  -2.4268970000 -4.5311230000  3.4453220000
C  -3.3376460000 -5.1341830000  2.6122620000
C  -3.1621490000 -5.0713560000  1.2125480000
C  -2.0941440000 -4.3966620000  0.6710760000
C   2.2728050000 -4.2919970000 -3.2732730000
C   3.1058860000 -5.1370360000 -2.5802200000
C   2.9752120000 -5.2648010000 -1.1801110000
C   2.0195590000 -4.5501240000 -0.4987330000
H   2.3671450000 -4.1825080000 -4.3507470000
H   3.8648210000 -5.7088650000 -3.1065440000
H   3.6378840000 -5.9323580000 -0.6370200000
H   1.9243270000 -4.6519700000  0.5775000000
H   8.0262040000 -2.6258410000 -1.9940320000
H   9.8944390000 -1.2559160000 -1.1222450000
H   9.4083450000  0.8281860000  0.1538380000
H   7.0986780000  1.5640670000  0.5036270000
H  -2.5468110000 -4.5803570000  4.5247110000
H  -4.1898680000 -5.6647720000  3.0270330000
H  -3.8806250000 -5.5560150000  0.5574550000
H  -1.9703470000 -4.3455910000 -0.4056960000
