    99
 Generated by Multiwfn
C       5.83281200      0.07627200     -2.65415300
C       5.18719400      1.27339400     -2.36899500
C       4.02368300      1.25875100     -1.60910100
C       3.47038800      0.06767700     -1.12659400
C       4.14577600     -1.14796800     -1.38182800
C       5.31266100     -1.11095600     -2.15283100
P       1.91507100      0.08738800     -0.11958800
C       1.82074700     -1.57829800      2.07850500
C       2.58257800     -0.57324900      1.47896800
C       3.80456400     -0.18620000      2.08200300
C       4.19917900     -0.84820300      3.24910500
C       3.43614200     -1.85966900      3.82562200
C       2.23113800     -2.22338400      3.24021700
C       1.60974300      1.86953700      0.26625200
C       1.26312600      2.81650100     -0.72135400
C       0.92351900      4.11116700     -0.31494900
C       0.89740300      4.48480800      1.02104700
C       1.23534500      3.55128300      1.99528300
C       1.59044100      2.26339700      1.61398800
Rh      0.06183100     -1.04703500     -1.17531000
C      -2.51131000      4.44437900     -0.78080100
C      -2.52547000      4.05051400      0.54699900
C      -2.31069800      2.72456500      0.95848800
C      -2.04637600      1.75746000     -0.03771900
C      -2.03935000      2.17680900     -1.37988200
C      -2.27342500      3.48810300     -1.76122700
P      -1.84626000     -0.10341100      0.00816900
C      -4.74328000     -0.16554400     -0.17254500
C      -3.49420900     -0.49941600     -0.74351100
C      -3.46564900     -1.06850000     -2.02147800
C      -4.63146700     -1.34176000     -2.72963300
C      -5.86092600     -1.04537600     -2.15628900
C      -5.90295400     -0.46280600     -0.89374900
C      -1.82352000     -0.69694000      1.74603200
C      -2.48339100     -1.84213700      2.24343800
C      -2.23353400     -2.21809200      3.57036800
C      -1.35537800     -1.52025900      4.39027800
C      -0.66790900     -0.42634100      3.87627300
C      -0.89470800     -0.04156600      2.56363600
H       1.24998200     -1.72546400     -1.94014800
C      -0.23060900     -0.27624600     -2.85250300
O      -0.36455100      0.03869900     -3.96138500
H       6.74141300      0.06457600     -3.24994300
H       5.58683600      2.21866800     -2.72562900
H       3.55987900      2.20411500     -1.35349400
H       5.82815600     -2.04779400     -2.35179200
H       5.13663100     -0.55501300      3.71649400
H       3.78343800     -2.35086100      4.73086300
H       1.60502900     -2.99446300      3.67986800
H       0.65624600      4.83600800     -1.08001200
H       0.61452100      5.49639400      1.29822800
H       1.23224900      3.82145300      3.04790300
H       1.86782100      1.54536100      2.37993300
H      -2.69495100      5.48198900     -1.04571600
H      -2.72462900      4.79187500      1.31745700
H      -2.26753100      3.75373400     -2.81473500
H      -2.50259000     -1.29653300     -2.46566800
H      -4.57116300     -1.78442600     -3.71987400
H      -6.78493600     -1.25717100     -2.68738700
H      -6.86503900     -0.21745600     -0.44986800
H      -2.74467700     -3.09562300      3.95942700
H      -1.19157100     -1.84609300      5.41368300
H       0.05832700      0.10984600      4.48007700
H      -0.33625300      0.79474200      2.15492000
C      -0.80929200     -3.02249800     -1.37363200
C      -0.08030700     -2.97481300     -0.16223200
H      -1.89386500     -2.94967900     -1.29820000
H       0.87608700     -3.49100800     -0.09477900
H      -0.62088800     -2.91418900      0.78041400
C      -0.35219300     -3.82622500     -2.56461400
H      -0.76736700     -4.84396000     -2.52220600
H       0.73978100     -3.90503200     -2.59053800
H      -0.67543100     -3.37594100     -3.50983100
C       3.72313500     -2.47157600     -0.81172100
H       3.96160600     -2.53153200      0.25690100
H       2.64614300     -2.62997900     -0.90931700
H       4.24138800     -3.28968000     -1.32108300
C       1.24777400      2.54102600     -2.20042700
H       1.54660500      1.52553100     -2.45284000
H       0.24334000      2.70458600     -2.60017700
H       1.92341700      3.22776800     -2.72455400
C      -3.42257900     -2.70417500      1.44371600
H      -4.41280400     -2.24975000      1.33414100
H      -3.05171100     -2.89830100      0.43502300
H      -3.55285900     -3.66894700      1.94248600
C      -4.89646300      0.51994400      1.15318500
H      -4.27272500      0.07087800      1.93091700
H      -4.60912400      1.57428700      1.07525100
H      -5.93706700      0.48091200      1.48806300
H       0.88722700     -1.85367100      1.60583500
C       4.71618700      0.88660500      1.55410000
H       5.37843300      1.23833100      2.35134700
H       5.34340700      0.51069300      0.73823600
H       4.16521000      1.74589400      1.16558700
H      -1.85938600      1.44220600     -2.15798000
C      -2.40327300      2.50089300      2.44497200
H      -2.81267600      1.53049600      2.71734100
H      -1.41745500      2.58522200      2.91584600
H      -3.03962000      3.27295300      2.88885500
