    87
 Generated by Multiwfn
C       3.48511100      1.96118700     -3.88983300
C       3.47152000      2.71315000     -2.71912700
C       3.04115200      2.14579500     -1.52142100
C       2.59728300      0.82101400     -1.47886200
C       2.62764800      0.07059100     -2.66201000
C       3.07260100      0.63037700     -3.85401500
P       1.94575700     -0.07330100     -0.00333200
C       3.24919900     -2.46769800      0.59729000
C       3.42209300     -1.08291000      0.50128500
C       4.69331900     -0.53499800      0.80367900
C       5.71377600     -1.40756800      1.19523000
C       5.52420200     -2.78208600      1.28714500
C       4.28051300     -3.31807600      0.98272300
C       1.86102100      1.13055600      1.37548200
C       1.42631300      2.45199700      1.21753900
C       1.28326300      3.28748900      2.32367100
C       1.54820400      2.81378300      3.60523000
C       1.95221000      1.48971200      3.77576900
C       2.10744200      0.65668000      2.67350100
Rh     -0.05747300     -1.27018900     -0.42033400
C      -0.44023300      4.57060700     -1.39414000
C      -1.11868400      4.43335900     -0.18469800
C      -1.55808100      3.18091600      0.23448600
C      -1.32547800      2.04865300     -0.55175700
C      -0.64098400      2.19498000     -1.76412200
C      -0.20634800      3.44781500     -2.18591200
P      -1.77863800      0.33916300     -0.06192800
C      -4.42844500      0.83941300     -1.13885800
C      -3.32842300     -0.03976700     -0.99988400
C      -3.41233600     -1.32143400     -1.55864700
C      -4.53133400     -1.74129300     -2.26959000
C      -5.59934200     -0.86907300     -2.43347500
C      -5.53895000      0.39901900     -1.86585300
C      -2.37986400      0.47068100      1.66223900
C      -3.62243400     -0.04355000      2.04795900
C      -4.00739000     -0.02761800      3.38689500
C      -3.15857800      0.50086900      4.35534700
C      -1.91489800      1.00587300      3.98046300
C      -1.52339600      0.98125500      2.64659400
H       0.88390600     -2.49859700     -0.74249200
C      -0.32533800     -1.33332900     -2.26655500
O      -0.40773300     -1.41863800     -3.42063400
H       3.80309200      3.74811800     -2.73027100
H       3.06778300      2.74597100     -0.61958700
H       2.29279300     -0.96272700     -2.64605800
H       3.08684800      0.02744200     -4.75769200
H       2.27711900     -2.88208300      0.35505100
H       6.68880900     -0.98713800      1.43067700
H       6.34505100     -3.42422500      1.59510000
H       4.10443000     -4.38834100      1.04537700
H       1.17397700      2.83355200      0.23552600
H       0.94632400      4.30949000      2.17448100
H       1.43400400      3.46691800      4.46586300
H       2.15043000      1.10294100      4.77167500
H       2.42907100     -0.37083500      2.81809800
H      -0.09063500      5.54778000     -1.71581000
H      -1.30343700      5.30350200      0.43965700
H      -2.07604900      3.08583700      1.18355600
H      -0.42096700      1.31995600     -2.36826900
H       0.33703600      3.53790900     -3.12175400
H      -2.57473100     -1.99828600     -1.42340700
H      -4.56024900     -2.74232900     -2.69042100
H      -6.38268300      1.07569700     -1.97963200
H      -4.29493300     -0.45309800      1.29971800
H      -4.97627200     -0.42943700      3.67040400
H      -3.46190500      0.51366000      5.39856200
H      -1.23684500      1.41276700      4.72549700
H      -0.54498000      1.35705000      2.36943200
C      -1.18416300     -2.69788500      0.78556000
C      -0.18168000     -2.09812000      1.58419000
H      -2.20141100     -2.32462500      0.91969600
H       0.70208900     -2.67695100      1.84739600
H      -0.44645500     -1.32950400      2.30658200
C      -1.12269300     -4.14046500      0.35489600
H      -1.61835400     -4.78653300      1.09491000
H      -0.08506500     -4.47491500      0.25184200
H      -1.61988800     -4.30085300     -0.60834700
H      -6.48194200     -1.17252200     -2.99007700
H       3.81990100      2.40596800     -4.82287500
C      -4.48980600      2.21428000     -0.53807600
H      -4.17895100      2.21235700      0.51067900
H      -3.83976000      2.91770300     -1.06778200
H      -5.51251200      2.59983000     -0.58472900
C       5.03482100      0.92461700      0.70992900
H       5.99152900      1.12065500      1.20294200
H       5.12552600      1.23947200     -0.33514900
H       4.27819600      1.56123400      1.17532400
