   105
 Generated by Multiwfn
C       3.18677900      1.84205400     -4.12076600
C       3.58521200      2.35697900     -2.88477100
C       3.20880400      1.70543600     -1.71276400
C       2.42308700      0.55168100     -1.73649600
C       2.04759900      0.04298800     -2.98729300
C       2.42222100      0.67000100     -4.16334300
P       1.87062000     -0.35364900     -0.23504500
C       3.40129400     -2.68825300      0.30725800
C       3.39526800     -1.29344000      0.20393600
C       4.59657400     -0.61781600      0.44039100
C       5.76616000     -1.29502500      0.76598600
C       5.75063500     -2.69058800      0.86262700
C       4.55802400     -3.38141100      0.63145300
C       1.91173000      0.93419600      1.06968200
C       1.49826100      2.25631900      0.84593100
C       1.41757600      3.16657000      1.88826800
C       1.73478800      2.77906100      3.19431600
C       2.14446600      1.46513200      3.43804500
C       2.22814300      0.56280600      2.38053200
Rh     -0.11377500     -1.61165000     -0.37129600
C      -0.58764300      4.21009900     -1.73398300
C      -1.27409200      4.15070700     -0.51815800
C      -1.65503000      2.91353700      0.00059000
C      -1.36003700      1.72845600     -0.67117800
C      -0.69215200      1.80744300     -1.90250000
C      -0.30854600      3.02653900     -2.43123700
P      -1.74579600      0.06345700     -0.02880300
C      -4.22505200      0.70066900     -1.22162400
C      -3.34051600     -0.31197200     -0.84631100
C      -3.72757200     -1.64355300     -1.05417600
C      -4.95752400     -1.94869900     -1.61245300
C      -5.83375100     -0.92346000     -1.98789200
C      -5.46116600      0.40956700     -1.79206300
C      -2.26703000      0.36498800      1.69693000
C      -3.53330800      0.02094000      2.17030200
C      -3.87975200      0.19812900      3.50963900
C      -2.94952600      0.73738000      4.39988000
C      -1.67524500      1.08866700      3.93618900
C      -1.33933500      0.89341800      2.60921800
H       0.82437400     -2.85823600     -0.64687400
C      -0.68827800     -1.97997500     -2.10828300
O      -0.98409400     -2.28017900     -3.19020800
H       4.18048900      3.26102600     -2.82033100
H       3.52182900      2.13385900     -0.76539700
H       1.43539600     -0.85300000     -3.03100600
H       2.12367600      0.27654100     -5.13028200
H       2.48000000     -3.23362500      0.12670600
H       4.62921900      0.46596500      0.37800700
H       6.67592700     -0.73125100      0.94047200
H       4.55965800     -4.46442100      0.71039800
H       1.22580500      2.58155800     -0.15241300
H       1.08883200      4.18574400      1.70980200
H       2.39628700      1.13196300      4.43871600
H       2.54674300     -0.45484100      2.58784400
H      -1.50832900      5.05226300      0.03697000
H      -2.16809200      2.88093300      0.95715100
H      -0.44415200      0.89489500     -2.43519900
H       0.23447500      3.08328700     -3.36956400
H      -3.94665300      1.74063700     -1.07449600
H      -3.04431700     -2.44271600     -0.78086800
H      -5.25935900     -2.97807200     -1.78024300
H      -6.11752400      1.22276600     -2.08133600
H      -4.27254800     -0.39079400      1.48973900
H      -4.87334700     -0.08367400      3.83998500
H      -0.95934300      1.50849400      4.63629600
H      -0.34512400      1.16176700      2.27136400
C      -1.06935100     -2.87942400      1.12561600
C       0.02836700     -2.20814100      1.71377000
H      -2.05874400     -2.47922100      1.35626000
H       0.94477400     -2.76260400      1.91208000
H      -0.14349700     -1.36376300      2.37747200
C      -1.05887400     -4.36072200      0.84918400
H      -1.44318000     -4.92067000      1.71512400
H      -0.04255600     -4.71111700      0.64107100
H      -1.68115500     -4.62000100     -0.01474500
O       6.82759600     -3.44845100      1.17324100
C       8.05276800     -2.78741600      1.40190100
H       7.98516800     -2.09868800      2.25367600
H       8.77937700     -3.56907900      1.62782000
H       8.38157200     -2.23256300      0.51409900
O       3.48458100      2.39990500     -5.31658600
C       4.22870400      3.59858900     -5.31399900
H       5.22016000      3.45519700     -4.86601100
H       4.34441300      3.88380800     -6.36049800
H       3.70072500      4.39632300     -4.77611500
O       1.61106600      3.73494200      4.14608300
C       1.89248600      3.37074700      5.47976000
H       2.93438200      3.04712700      5.59765800
H       1.72304400      4.26611500      6.07933800
H       1.22589000      2.57102600      5.82782600
O      -0.15244300      5.35294500     -2.31238800
C      -0.37886700      6.56346600     -1.62392500
H       0.10786700      6.56145800     -0.64003200
H       0.05872400      7.34862400     -2.24189500
H      -1.45088200      6.75910000     -1.49544600
O      -7.00731300     -1.31853100     -2.53092700
C      -7.91329000     -0.31703400     -2.94040600
H      -7.47764900      0.32469300     -3.71643100
H      -8.77749700     -0.84196000     -3.34958300
H      -8.23376400      0.30463700     -2.09474500
O      -3.18141200      0.95798100      5.71466900
C      -4.44736100      0.60093900      6.22571900
H      -4.63914100     -0.47291800      6.10726700
H      -4.42469500      0.84845800      7.28787900
H      -5.25130900      1.16726800      5.73864700
