   105
 Generated by Multiwfn
C       3.54036500      2.12434800     -3.85807600
C       3.83417600      2.61777200     -2.58676100
C       3.35132400      1.99706400     -1.44291000
C       2.54710100      0.85342200     -1.56095900
C       2.25042800      0.35987400     -2.82570000
C       2.74010700      0.98742900     -3.97553000
P       1.90715200     -0.11237900     -0.12568800
C       3.41012000     -2.44844400      0.37560700
C       3.43043400     -1.06191600      0.32903800
C       4.61989200     -0.38418300      0.64268300
C       5.75167600     -1.10364500      0.99085800
C       5.73501900     -2.49960400      1.04056600
C       4.55528600     -3.17312400      0.73030600
C       1.89239700      1.11226500      1.24143800
C       1.48093500      2.43966200      1.05114700
C       1.36820100      3.28746800      2.14549400
C       1.64343400      2.84506200      3.43899000
C       2.04184700      1.51922700      3.63063900
C       2.16653100      0.66303100      2.53326300
Rh     -0.05634700     -1.37725500     -0.39548800
C      -0.59814800      4.46811900     -1.53088700
C      -1.28140600      4.34428900     -0.32115800
C      -1.66485100      3.10064600      0.16671000
C      -1.34855700      1.95096300     -0.56658500
C      -0.68746800      2.06653600     -1.78652600
C      -0.31531000      3.32040900     -2.27802700
P      -1.71938500      0.24740700     -0.00567800
C      -4.19098800      0.93070600     -1.20808900
C      -3.29691200     -0.09797500     -0.88071800
C      -3.62875800     -1.41831100     -1.16385100
C      -4.84870000     -1.72935600     -1.77415200
C      -5.73832400     -0.70626000     -2.10616500
C      -5.39688400      0.61594000     -1.81850000
C      -2.29249800      0.45490200      1.72149500
C      -3.55990400      0.04516300      2.12298900
C      -3.94228200      0.13773800      3.46692600
C      -3.05248300      0.64897500      4.41225800
C      -1.78375600      1.05849800      3.99941100
C      -1.39358900      0.96063000      2.67262200
H       0.90430300     -2.59207500     -0.72228400
C      -0.57878900     -1.66527900     -2.16650700
O      -0.84627300     -1.92169800     -3.26539600
H       3.93081500      2.62968600     -4.73448500
H       4.45629100      3.50460700     -2.49499700
H       3.58821100      2.40761600     -0.46734100
H       1.62021900     -0.51668400     -2.94047300
H       2.50171600     -2.99215200      0.13740100
H       4.65589300      0.69958800      0.62147400
H       6.67142300     -0.57784000      1.23340600
H       6.63427000     -3.03743200      1.31956400
H       1.24245600      2.80595400      0.05916300
H       1.04448600      4.31328100      1.99238700
H       1.54184500      3.52825700      4.27487200
H       2.47967000     -0.36038500      2.71567100
H      -0.30294500      5.45039500     -1.88291000
H      -1.50942300      5.24044300      0.25016100
H      -2.17861500      3.01929100      1.11862700
H      -0.41839600      1.18654200     -2.36254400
H      -3.93894200      1.96375500     -0.99006400
H      -2.93935700     -2.22305000     -0.92709400
H      -6.68610300     -0.92172000     -2.58681500
H      -6.09148300      1.40913200     -2.08197400
H      -4.27884000     -0.34968700      1.41248500
H      -3.32951800      0.72829400      5.45749400
H      -1.08634400      1.45409200      4.73315900
H      -0.40227900      1.27487500      2.37028800
C      -1.03847500     -2.75043600      0.99643000
C       0.02994800     -2.10342200      1.65709000
H      -2.04047800     -2.37665200      1.21688800
H       0.94930400     -2.65518500      1.84736400
H      -0.17355800     -1.30228900      2.36387000
C      -1.00006200     -4.21031300      0.62589400
H      -1.40206400     -4.82635700      1.44418400
H       0.02609500     -4.53609700      0.42665800
H      -1.59648600     -4.42077800     -0.26879400
O       4.40859100     -4.52075000      0.74777500
C       5.52989200     -5.29410500      1.10963300
H       5.86858100     -5.05970600      2.12729900
H       5.20538200     -6.33477400      1.06882300
H       6.36301900     -5.14693400      0.41009000
O      -5.06916700     -3.04587000     -2.00232500
C      -6.27688700     -3.40750900     -2.63365500
H      -6.35820000     -2.95823300     -3.63175000
H      -6.25404400     -4.49387300     -2.72855500
H      -7.14789100     -3.11436400     -2.03319400
O       2.37688900      0.42051700     -5.14983700
C       2.79901600      1.04773800     -6.33828900
H       2.39157400      0.45157300     -7.15576000
H       2.41147800      2.07272200     -6.41027800
H       3.89379200      1.06965300     -6.41710000
O       0.31542500      3.31855400     -3.47386800
C       0.88510800      4.52766800     -3.91791100
H       1.60610900      4.91720100     -3.18822300
H       1.40920900      4.28995700     -4.84460400
H       0.11884700      5.28748300     -4.11935400
O      -5.19818800     -0.28954900      3.74530600
C      -5.62633500     -0.23015400      5.08702600
H      -5.63083200      0.80121400      5.46332200
H      -6.64489000     -0.62070400      5.09651400
H      -4.99518500     -0.84857400      5.73808600
O       2.32484700      0.96975800      4.83770000
C       2.19633200      1.79033500      5.97597000
H       1.16673600      2.15247000      6.09792600
H       2.46030800      1.16559100      6.83034500
H       2.87624600      2.65095800      5.93222000
