    85
 Generated by Multiwfn
C       3.43891500      2.17733200     -3.74244000
C       3.73579100      2.65280800     -2.46094700
C       3.28775700      1.96645300     -1.34336500
C       2.51806800      0.80169300     -1.48321000
C       2.23820200      0.32472700     -2.76768900
C       2.69807900      1.00275200     -3.88965200
P       1.87329000     -0.18458800     -0.05938000
C       3.42121300     -2.52931500      0.32116700
C       3.39806100     -1.13530200      0.37201500
C       4.56541900     -0.45470600      0.74491800
C       5.72460000     -1.15408700      1.05675500
C       5.73682700     -2.54771300      1.00163400
C       4.58391500     -3.23241600      0.63371000
C       1.84263000      1.02082300      1.32342700
C       1.43609800      2.35012800      1.15475400
C       1.30396500      3.19392000      2.25522100
C       1.56407000      2.72310000      3.53938100
C       1.95947800      1.39800100      3.71869300
C       2.09765000      0.55429000      2.62135000
Rh     -0.09008200     -1.42703200     -0.38206200
C      -0.56458500      4.46031100     -1.41212900
C      -1.30978800      4.32190000     -0.24292500
C      -1.70163500      3.05848400      0.19519900
C      -1.34439800      1.92216500     -0.53532700
C      -0.61390000      2.07002600     -1.72009800
C      -0.22416400      3.33137400     -2.15681400
P      -1.74517700      0.21324100     -0.01905000
C      -4.13100200      0.93611400     -1.36219800
C      -3.29343500     -0.11004000     -0.96114800
C      -3.65960300     -1.43415400     -1.24191300
C      -4.84644300     -1.70793800     -1.90477200
C      -5.67936000     -0.65907900     -2.30628400
C      -5.31541500      0.66156400     -2.03501600
C      -2.38177200      0.39110600      1.68749100
C      -3.67564100      0.00529000      2.05148800
C      -4.08700000      0.09358500      3.37993200
C      -3.21631100      0.57268200      4.35451100
C      -1.92556600      0.95959400      3.99810100
C      -1.50724500      0.86104900      2.67616200
H       0.86174600     -2.65183900     -0.68974700
C      -0.57529400     -1.69115900     -2.16714000
O      -0.81183500     -1.92044500     -3.27921000
H       4.31978200      3.56345800     -2.36399500
H       3.52165400      2.35115800     -0.35605700
H       1.64131700     -0.57518500     -2.88057700
H       2.47258900      0.62619500     -4.88521200
H       2.52023400     -3.06295700      0.03452800
H       4.56818400      0.62967900      0.80177700
H       6.62067100     -0.61082400      1.34389400
H       6.64326000     -3.09464400      1.24610500
H       4.58274700     -4.31806800      0.58950400
H       1.21274600      2.73392400      0.16498600
H       0.98576800      4.22097000      2.10059700
H       1.45858900      3.38292600      4.39598700
H       2.16298800      1.01839600      4.71618100
H       2.40898300     -0.47536400      2.77224400
H      -0.24896100      5.44580900     -1.74293300
H      -1.58194800      5.19986300      0.33660100
H      -2.26633000      2.95614500      1.11698100
H      -0.32584100      1.18788600     -2.28373100
H       0.36266800      3.42809600     -3.06588300
H      -3.85355600      1.96455600     -1.15197400
H      -2.99611500     -2.24127700     -0.94507800
H      -5.14322600     -2.72817300     -2.12936500
H      -5.96384200      1.47554400     -2.35239100
H      -4.36790200     -0.36259800      1.30051800
H      -5.09441700     -0.21077700      3.64985500
H      -3.54131400      0.64254900      5.38883700
H      -1.23449900      1.33376500      4.74824900
H      -0.49869400      1.15655800      2.40925800
C      -1.09850300     -2.80071900      0.99356900
C      -0.03363400     -2.16290600      1.66759600
H      -2.09947700     -2.42000300      1.20598100
H       0.88082600     -2.72107000      1.86382500
H      -0.23977300     -1.36244300      2.37425200
C      -1.06533100     -4.25891100      0.61677200
H      -1.48495400     -4.87499500      1.42563600
H      -0.03871200     -4.59156300      0.43224300
H      -1.64751500     -4.46152900     -0.28888200
C      -6.94161200     -0.93909500     -3.01693200
O      -7.34679400     -2.05079100     -3.28514400
C       3.90269100      2.90835500     -4.93539500
O       4.53547000      3.94394200     -4.90446900
H       3.62754200      2.43888700     -5.90390400
H      -7.52441300     -0.03710100     -3.30186700
