    85
 Generated by Multiwfn
C       3.22773000      2.45039500     -3.61712300
C       4.11376500      2.36780900     -2.54880800
C       3.78925200      1.68251000     -1.37325800
C       2.53575900      1.02496900     -1.26989500
C       1.66664000      1.12007700     -2.35322800
C       1.99274200      1.82812100     -3.51044300
P       1.93925300     -0.04995200      0.12188400
C       3.62343900     -2.03773400     -0.77422400
C       3.36676600     -1.19389300      0.31437800
C       4.16339600     -1.30132700      1.45456700
C       5.18455600     -2.24823100      1.51206100
C       5.43657800     -3.08032600      0.42599000
C       4.65728300     -2.96523100     -0.72436400
C       1.95087000      1.06922000      1.56410800
C       1.88641200      2.45719800      1.39765600
C       1.76756100      3.29644000      2.50136900
C       1.72663500      2.76454300      3.78872800
C       1.78511400      1.38372900      3.96291100
C       1.87764000      0.54109400      2.85924000
Rh     -0.04157600     -1.30703200     -0.20487100
C      -0.80756300      4.11981300     -2.46011200
C      -0.67635700      4.14560700     -1.07452500
C      -1.01264000      3.03021200     -0.31198600
C      -1.47052300      1.86650300     -0.93150400
C      -1.59742900      1.84392700     -2.32582500
C      -1.27926800      2.96657900     -3.08314000
P      -1.79709600      0.29891500     -0.04191700
C      -4.49717100      0.57168200     -1.11629100
C      -3.37180300     -0.25079200     -0.85571900
C      -3.42373700     -1.57679700     -1.28391900
C      -4.52950600     -2.09129800     -1.96321700
C      -5.61411500     -1.27344300     -2.24683100
C      -5.58559700      0.05054400     -1.82283000
C      -2.33238600      0.66941500      1.66610700
C      -3.55883800      0.20392000      2.15322500
C      -3.90983600      0.39691000      3.48554000
C      -3.04411400      1.06119200      4.35057600
C      -1.81475000      1.51124400      3.87840100
C      -1.45242100      1.30134700      2.55107900
H       0.97755600     -2.50619700     -0.29539000
C      -0.27116600     -1.67501800     -2.02193600
O      -0.32847700     -1.97888100     -3.14117200
H       5.08497200      2.85385100     -2.61563000
H       0.70691100      0.62309500     -2.28256300
H       3.00222800     -1.97162400     -1.66430100
H       4.01231700     -0.62850500      2.29001000
H       5.79400900     -2.32167800      2.40882600
H       6.23712400     -3.81358400      0.47267400
H       4.84630300     -3.60682500     -1.58078800
H       1.92430200      2.88515500      0.40068900
H       1.71485000      4.37190500      2.35404000
H       1.64441900      3.42200500      4.64975000
H       1.74150900      0.95632000      4.96089600
H       1.87915700     -0.53356000      3.00771000
H      -0.54977700      4.99446100     -3.05057800
H      -0.32395700      5.04524400     -0.57693200
H      -0.94122600      3.08351100      0.76781200
H      -1.94878300      0.94382500     -2.82528400
H      -1.39555600      2.93625500     -4.16337300
H      -2.56655500     -2.21352200     -1.08713700
H      -6.43241400      0.70191500     -2.02876100
H      -4.25092100     -0.30595800      1.49022900
H      -4.86717200      0.02999500      3.84559000
H      -3.32206000      1.21692600      5.38929500
H      -1.11849200      2.01425700      4.54277400
H      -0.46895300      1.61168000      2.21761800
C      -1.15061900     -2.63230400      1.11821900
C      -0.16063400     -1.94713200      1.86282300
H      -2.17339000     -2.26528800      1.23020000
H       0.73594400     -2.48770000      2.16524700
H      -0.44783200     -1.12672700      2.51669400
C      -1.06493800     -4.10592500      0.81510400
H      -1.54579100     -4.69292400      1.61184600
H      -0.02144300     -4.42688600      0.73551500
H      -1.56332800     -4.36061000     -0.12738500
H      -6.47333600     -1.65737000     -2.78849900
H       3.50212100      2.99371500     -4.51644200
H       1.27371000      1.88146800     -4.32231000
H      -4.52678000     -3.13113700     -2.27756600
C       4.82911600      1.76333200     -0.32687200
O       4.74103900      1.39866400      0.82436300
C      -4.68188900      1.96805800     -0.66189600
O      -3.98920300      2.57520000      0.12338400
H       5.76589300      2.24204500     -0.68621900
H      -5.58476800      2.44894800     -1.09649900
