    87
 Generated by Multiwfn
C       3.42190900      2.12048000     -3.77253200
C       3.74114800      2.59237000     -2.49689000
C       3.29653000      1.90987300     -1.37183600
C       2.51455200      0.75575200     -1.49886200
C       2.21422700      0.28362400     -2.78136600
C       2.66426700      0.95515200     -3.90918700
P       1.87915300     -0.22034700     -0.06449700
C       3.42590100     -2.56543100      0.31896400
C       3.40462700     -1.17126800      0.36594900
C       4.57432600     -0.49179000      0.73340700
C       5.73343900     -1.19200500      1.04368900
C       5.74364700     -2.58577700      0.99209500
C       4.58855800     -3.26954700      0.62945000
C       1.86126800      0.99711100      1.30833000
C       1.45855200      2.32625000      1.12936400
C       1.33634300      3.18116900      2.22238200
C       1.60350100      2.72216300      3.50939900
C       1.99527700      1.39740700      3.69906300
C       2.12269000      0.54240300      2.60916100
Rh     -0.08984900     -1.46225100     -0.35589800
C      -0.56126800      4.41274000     -1.44971900
C      -1.29381900      4.28993900     -0.27078400
C      -1.68468000      3.03280300      0.18586100
C      -1.33903000      1.88721000     -0.53566700
C      -0.62111600      2.01948600     -1.72983700
C      -0.23239500      3.27446900     -2.18527400
P      -1.73961900      0.18491000      0.00286200
C      -4.14461300      0.89674000     -1.31264000
C      -3.29691600     -0.14484000     -0.91988100
C      -3.66528100     -1.46736900     -1.19182200
C      -4.86267500     -1.74310300     -1.83799100
C      -5.70313200     -0.69945900     -2.22965900
C      -5.33892800      0.62385800     -1.96744000
C      -2.35998800      0.38393500      1.71336600
C      -3.65186500      0.00652700      2.09300400
C      -4.05141800      0.11112700      3.42388300
C      -3.17081300      0.59815300      4.38555700
C      -1.88195200      0.97664500      4.01362800
C      -1.47563700      0.86193400      2.68924400
H       0.85578800     -2.69295100     -0.65896200
C      -0.59026700     -1.74552300     -2.13441600
O      -0.83819800     -1.99020700     -3.24043400
H       4.33572100      3.49326000     -2.38835100
H       3.54719900      2.29659500     -0.38953500
H       1.60720400     -0.61022400     -2.88863700
H       2.42874900      0.59490400     -4.90566700
H       2.52307900     -3.09844500      0.03693100
H       4.57883500      0.59270300      0.78745000
H       6.63114900     -0.64930300      1.32691200
H       6.65004900     -3.13344200      1.23512800
H       4.58558700     -4.35530300      0.58768900
H       1.23032100      2.70064700      0.13706800
H       1.01986300      4.20757900      2.05990600
H       1.50577100      3.39064900      4.36022900
H       2.20373900      1.02673700      4.69891500
H       2.43038300     -0.48714400      2.76808000
H      -0.24745100      5.39373100     -1.79551700
H      -1.55745100      5.17527800      0.30148700
H      -2.23994400      2.94271700      1.11462200
H      -0.34251300      1.13047300     -2.28725600
H       0.34353800      3.35795600     -3.10261000
H      -3.86735600      1.92681900     -1.10993500
H      -2.99952200     -2.27526200     -0.90276400
H      -5.15900700     -2.76440900     -2.05488900
H      -5.99071900      1.43415800     -2.27603000
H      -4.35163900     -0.36715900      1.35193800
H      -5.05752700     -0.18668000      3.70581700
H      -3.48663500      0.68071500      5.42182200
H      -1.18305200      1.35679600      4.75348000
H      -0.46856800      1.15079600      2.41008000
C      -1.09204500     -2.81859100      1.03907100
C      -0.02007800     -2.17745300      1.69942900
H      -2.09051200     -2.43337200      1.25522600
H       0.89401400     -2.73682200      1.89433600
H      -0.21869500     -1.37005200      2.40041300
C      -1.06567700     -4.28066000      0.67680300
H      -1.48117100     -4.88776400      1.49462300
H      -0.04125800     -4.61784500      0.48822200
H      -1.65482100     -4.49056500     -0.22269600
C      -6.96759500     -1.04685300     -2.92109900
O      -7.33351000     -2.17844600     -3.15805100
O      -7.69034500      0.03221700     -3.26738900
H      -8.48779700     -0.30668100     -3.70990400
C       3.86089600      2.81671900     -5.00405900
O       3.60474900      2.45002600     -6.13134200
O       4.58566500      3.92166100     -4.75357800
H       4.82115700      4.29233200     -5.62176000
