    87
 Generated by Multiwfn
C       3.30261800      1.92111500     -4.02284400
C       3.65365300      2.42734000     -2.76867200
C       3.22579400      1.78649000     -1.60476500
C       2.42472200      0.64737700     -1.67408600
C       2.08902400      0.14394000     -2.93577100
C       2.52693600      0.77011500     -4.09965000
P       1.80638700     -0.26831600     -0.19493000
C       3.32044100     -2.62354600      0.25589400
C       3.32372900     -1.22858300      0.24271100
C       4.51206400     -0.55407100      0.55584700
C       5.66600600     -1.26071500      0.87081800
C       5.65187800     -2.65546900      0.87958700
C       4.47787800     -3.33402900      0.57194600
C       1.83980000      0.99449400      1.13577600
C       1.47950100      2.33008700      0.92051800
C       1.40906700      3.22394800      1.98683000
C       1.68514900      2.79767200      3.28311600
C       2.03281800      1.46622300      3.50947500
C       2.10919400      0.57273100      2.44623600
Rh     -0.18798200     -1.48549200     -0.41204000
C      -0.55785100      4.36444900     -1.65405600
C      -1.27275200      4.29100200     -0.46043600
C      -1.68288800      3.05615900      0.03805500
C      -1.37423100      1.88248500     -0.65474300
C      -0.67630800      1.96628100     -1.86486000
C      -0.26829300      3.19880100     -2.36259900
P      -1.79946300      0.20311800     -0.06531400
C      -4.26380800      0.93327900     -1.23886100
C      -3.39760500     -0.11463100     -0.90783300
C      -3.78781900     -1.43214400     -1.16727600
C      -5.02622300     -1.69771000     -1.74554600
C      -5.88142300     -0.65002900     -2.07580800
C      -5.49741000      0.66559700     -1.82332200
C      -2.34007900      0.45787000      1.66714300
C      -3.59306500      0.04303100      2.11456700
C      -3.93832000      0.16707700      3.46294100
C      -3.03438100      0.71483200      4.37542600
C      -1.78313800      1.13022600      3.93222300
C      -1.43406100      0.99437500      2.59299300
H       0.73489300     -2.73844700     -0.69740600
C      -0.72874100     -1.80870600     -2.17085900
O      -1.00027900     -2.08011200     -3.26557700
H       1.46376800     -0.74187100     -2.99980500
H       2.40268900     -3.15192200      0.01619000
H       4.53624400      0.53163000      0.56388500
H       6.57838100     -0.72174600      1.11095100
H       6.55423100     -3.20794100      1.12695300
H       4.45602300     -4.42040900      0.57789300
H       1.24596500      2.68141600     -0.07882000
H       1.12950500      4.25594400      1.79546300
H       1.63043600      3.49723900      4.11255600
H       2.24837200      1.12104000      4.51694200
H       2.38477900     -0.46125200      2.63307000
H      -0.22670100      5.32787400     -2.03146000
H      -1.50682400      5.19752500      0.09105300
H      -2.22591300      3.00747400      0.97713500
H      -0.42791100      1.05547500     -2.40081200
H       0.29418800      3.24317000     -3.29101500
H      -3.11155200     -2.24509000     -0.91858800
H      -6.16028000      1.48654200     -2.08230900
H      -4.32436900     -0.37910000      1.43276900
H      -3.31235400      0.80943900      5.41956500
H      -1.06700400      1.55580100      4.62887500
H      -0.45176200      1.31247400      2.26266900
C      -1.19031400     -2.78793500      1.03146200
C      -0.09997100     -2.14618700      1.66088500
H      -2.18131300     -2.38393800      1.24729100
H       0.80783800     -2.71430500      1.85957300
H      -0.27494400     -1.31727600      2.34317400
C      -1.18960700     -4.25927300      0.70759200
H      -1.60391000     -4.83859300      1.54591800
H      -0.17267400     -4.61665400      0.51542800
H      -1.79341700     -4.48276900     -0.17876000
H      -6.84572600     -0.85708000     -2.53144200
H       3.63726500      2.42616800     -4.92256000
H       2.25184800      0.36205900     -5.06777400
H      -5.31902600     -2.72523700     -1.94206400
H       3.51991300      2.21842500     -0.65415100
H      -3.97055100      1.96096700     -1.04393400
C       4.47696400      3.64906600     -2.61334100
O       4.80514800      4.12882900     -1.54841200
O       4.83542800      4.19443500     -3.78875500
H       5.36901800      4.97836400     -3.57146100
C      -5.28430400     -0.29901100      3.87123000
O      -6.10238200     -0.78710700      3.12063000
O      -5.52365200     -0.12755700      5.18340500
H      -6.42191400     -0.46667100      5.34012700
