    81
 Generated by Multiwfn
C       3.39194800      2.01599400     -3.89263300
C       3.75737900      2.46761600     -2.62641800
C       3.30878500      1.80377300     -1.48842500
C       2.47404600      0.68593600     -1.59979900
C       2.12254700      0.23512600     -2.87563100
C       2.57923900      0.89150000     -4.01488700
P       1.84036800     -0.27148000     -0.15729500
C       3.33052400     -2.65948600      0.20858100
C       3.34478800     -1.26587700      0.25582800
C       4.53892100     -0.62307500      0.60852100
C       5.68547000     -1.34754700      0.90460400
C       5.63987200     -2.73829000      0.84769500
C       4.47167600     -3.40329500      0.50154400
C       1.88390600      0.93829800      1.22207900
C       1.52785500      2.28198100      1.05242600
C       1.45460300      3.13773800      2.14940800
C       1.72674000      2.66615800      3.43105800
C       2.07250300      1.32726400      3.61159100
C       2.14893700      0.47091300      2.51788000
Rh     -0.16169500     -1.47517000     -0.40067500
C      -0.51661300      4.41622700     -1.44746700
C      -1.23342800      4.30499700     -0.25777300
C      -1.64393200      3.05488000      0.20056900
C      -1.33465700      1.90416600     -0.52967800
C      -0.63336600      2.02587700     -1.73454000
C      -0.22404800      3.27374200     -2.19152600
P      -1.76511900      0.20797200      0.00533800
C      -4.22012100      0.98381100     -1.16267800
C      -3.36276400     -0.07753500     -0.85184500
C      -3.75935500     -1.38541700     -1.14869100
C      -4.99474600     -1.62826700     -1.74346300
C      -5.84087400     -0.56688400     -2.05382400
C      -5.45070700      0.73928900     -1.76403300
C      -2.30808600      0.41280600      1.74222000
C      -3.57596500      0.01855900      2.17923100
C      -3.92682400      0.11207700      3.52365700
C      -3.00187700      0.60987400      4.43363700
C      -1.73324100      1.00915800      4.02417100
C      -1.39168700      0.89961300      2.68251100
H       0.74954800     -2.72517200     -0.73352900
C      -0.71010400     -1.73556100     -2.16832400
O      -0.98919900     -1.97030000     -3.26925000
H       4.39465100      3.34153900     -2.52173800
H       1.47420800     -0.63102100     -2.97063500
H       2.41193700     -3.17140400     -0.06163800
H       4.58031800      0.46026500      0.66361400
H       6.60502900     -0.84100700      1.17736400
H       4.44810600     -4.48707500      0.46217300
H       1.29856700      2.66627400      0.06416500
H       1.17308600      4.17545000      1.99457000
H       1.66820200      3.33564300      4.28469300
H       2.28353600      0.94645800      4.60707000
H       2.41831400     -0.57022300      2.67094400
H      -0.18627900      5.39147700     -1.79421900
H      -1.46926700      5.19353900      0.32159900
H      -2.18770200      2.97561400      1.13711000
H      -0.38097600      1.13335400     -2.29843600
H       0.34319000      3.34647900     -3.11512200
H      -3.08858900     -2.20844500     -0.91860800
H      -6.10529600      1.57118000     -2.00892900
H      -4.30474100     -0.36197400      1.47023600
H      -4.91192000     -0.19551200      3.85760600
H      -1.01590700      1.39459700      4.74056200
H      -0.40054400      1.20415600      2.36676400
C      -1.16409100     -2.81692700      1.00461300
C      -0.06570400     -2.20257400      1.64799300
H      -2.15048700     -2.41343200      1.24135000
H       0.83823100     -2.78418300      1.82453200
H      -0.23240200     -1.39629400      2.35868300
C      -1.17571100     -4.27754400      0.63564600
H      -1.58825600     -4.87991600      1.45845200
H      -0.16251300     -4.63561500      0.42599600
H      -1.78607900     -4.46993900     -0.25359200
H      -6.80140700     -0.75571100     -2.52519800
H       3.74152900      2.53704000     -4.77965800
H       2.29265700      0.52667300     -4.99735700
H      -5.29078300     -2.64832600     -1.97190600
H      -3.92162700      2.00430300     -0.93992100
H       3.59736300      2.17728900     -0.51083200
Br     -3.47325200      0.74684000      6.25953800
Br      7.19561100     -3.73344300      1.25278400
