    81
 Generated by Multiwfn
C       3.34187100      2.03322300     -3.86690600
C       3.72585600      2.49986100     -2.61789800
C       3.29081800      1.81880800     -1.48656800
C       2.46559200      0.69283800     -1.59411100
C       2.10769000      0.24868200     -2.87125300
C       2.54216600      0.90949800     -4.01483600
P       1.85518800     -0.27955000     -0.15364000
C       3.34711000     -2.66076600      0.22740400
C       3.36203000     -1.26538300      0.25548100
C       4.55982100     -0.61651000      0.58850100
C       5.70930000     -1.33588900      0.88343200
C       5.65430600     -2.72349100      0.84295700
C       4.49047200     -3.40037200      0.51954300
C       1.89412800      0.93251100      1.22351900
C       1.52024100      2.27221200      1.05959500
C       1.42860400      3.13028800      2.15198400
C       1.70409700      2.63460600      3.41696400
C       2.07533900      1.31228800      3.61978100
C       2.16697300      0.46842700      2.51916000
Rh     -0.14753400     -1.48365800     -0.39018500
C      -0.53746200      4.37570700     -1.45425500
C      -1.23542800      4.29296800     -0.25753300
C      -1.63567400      3.04063500      0.20025900
C      -1.33506400      1.88676500     -0.52928300
C      -0.64545000      2.00949600     -1.74171000
C      -0.24008500      3.25135300     -2.21363100
P      -1.75836800      0.19248400      0.01648100
C      -4.20581100      0.95018000     -1.18085100
C      -3.34590300     -0.10440200     -0.85186000
C      -3.73742000     -1.41529500     -1.14535100
C      -4.96136800     -1.67542300     -1.75213900
C      -5.78612800     -0.60630200     -2.06874500
C      -5.42864800      0.70674300     -1.79460500
C      -2.31144600      0.41490000      1.74653700
C      -3.59927900      0.07546400      2.17366100
C      -3.96101900      0.20140000      3.51209200
C      -3.02423600      0.67710200      4.41657200
C      -1.73740000      1.02357300      4.02736000
C      -1.38666800      0.87796800      2.69190700
H       0.76573900     -2.73278800     -0.71954000
C      -0.69537300     -1.75096400     -2.15693600
O      -0.97286000     -1.98805300     -3.25783500
H       4.35456900      3.38104600     -2.54271000
H       1.46829300     -0.62344900     -2.96931700
H       2.42569500     -3.17462200     -0.02811700
H       4.59976500      0.46757100      0.62802600
H       6.63964300     -0.84115600      1.14240800
H       4.48426800     -4.48527200      0.49947100
H       1.28679700      2.65851800      0.07329500
H       1.13411700      4.16707400      2.02830900
H       2.28410300      0.95829800      4.62406700
H       2.45382900     -0.56765700      2.67222500
H      -1.45280600      5.19744800      0.30132400
H      -2.16926700      2.96590500      1.14269800
H      -0.39923600      1.11819900     -2.30979400
H       0.31429300      3.35125000     -3.14095500
H      -3.06896600     -2.23652600     -0.90358800
H      -6.10106100      1.51467500     -2.06366000
H      -4.33306500     -0.28643900      1.46047000
H      -4.95657200     -0.05910600      3.85602500
H      -1.02790000      1.39481000      4.75974400
H      -0.38222700      1.13659000      2.37888500
C      -1.14874600     -2.82186500      1.02006000
C      -0.04942000     -2.20537800      1.65990300
H      -2.13446100     -2.41726800      1.25858400
H       0.85467100     -2.78635200      1.83739000
H      -0.21701000     -1.39803000      2.36919100
C      -1.16061700     -4.28353300      0.65524000
H      -1.57147100     -4.88347100      1.48056400
H      -0.14772500     -4.64185000      0.44470900
H      -1.77240300     -4.47929500     -0.23229500
H       2.26523000      0.56926600     -5.00729100
H      -5.27436500     -2.68686600     -1.98931700
H      -3.91746500      1.97420000     -0.96237100
H       3.58866700      2.19114700     -0.51155100
F      -3.37084700      0.80780400      5.70338200
F      -6.96277400     -0.84626000     -2.66026700
F      -0.13823400      5.57703700     -1.88954200
F       1.60264500      3.45053000      4.47560900
F       3.75439500      2.68820100     -4.95951800
F       6.75997900     -3.42321500      1.12844800
