    99
 Generated by Multiwfn
C       3.10697900      2.37203800     -3.67630600
C       3.47796300      2.80088700     -2.40493200
C       3.18957600      2.01068400     -1.29906100
C       2.49152400      0.80680900     -1.44420000
C       2.17267900      0.36717100     -2.73274700
C       2.48295500      1.13791600     -3.84602900
P       1.90947700     -0.22667300     -0.03150500
C       3.46957100     -2.55258800      0.39954700
C       3.45178700     -1.15870100      0.37741100
C       4.62988300     -0.46172700      0.67797400
C       5.79694700     -1.14360900      0.98791700
C       5.79991700     -2.53877900      1.00329300
C       4.63820600     -3.24338800      0.70968800
C       1.87925900      0.95163400      1.37503800
C       1.46497600      2.28027100      1.23598700
C       1.30474200      3.09565900      2.35275900
C       1.54323400      2.58537000      3.62392000
C       1.95746400      1.26090900      3.77944300
C       2.12514200      0.45362100      2.66444500
Rh     -0.05765200     -1.47143100     -0.29983800
C      -0.32521600      4.31105500     -1.51618200
C      -1.03275100      4.25301300     -0.31857600
C      -1.52127500      3.03132300      0.13980000
C      -1.29027000      1.86457900     -0.59193900
C      -0.62466700      1.94731500     -1.82141800
C      -0.14561000      3.16204400     -2.28654400
P      -1.72372800      0.17779300     -0.02179600
C      -4.08838300      0.87850300     -1.40339700
C      -3.25108600     -0.16017200     -0.98271500
C      -3.61120900     -1.48320600     -1.25461200
C      -4.78929100     -1.76585600     -1.93651600
C      -5.61194400     -0.72364300     -2.35586800
C      -5.26252600      0.59931000     -2.09131300
C      -2.38715400      0.43024100      1.66643600
C      -3.70655100      0.12200000      2.00925500
C      -4.14686100      0.27878300      3.32006300
C      -3.27432200      0.75325600      4.29463300
C      -1.95497800      1.06191500      3.96640000
C      -1.51401400      0.88624000      2.66249500
H       0.88685700     -2.71167400     -0.55073500
C      -0.50970500     -1.79926600     -2.08737500
O      -0.72155200     -2.07282700     -3.19270200
H       3.97442800      3.75693200     -2.27640700
H       3.47825900      2.36753900     -0.31626000
H       1.64407100     -0.57249500     -2.86006900
H       2.21561700      0.79361000     -4.83995300
H       2.55986600     -3.09972000      0.17361100
H       4.63829900      0.62370200      0.67938900
H       6.70266200     -0.59502000      1.22596900
H       4.63935400     -4.32831800      0.72997600
H       1.25437200      2.69061900      0.25518300
H       0.97735200      4.12227100      2.22870400
H       2.14102000      0.86084200      4.77219500
H       2.44403900     -0.57592100      2.79581500
H      -1.19003100      5.15510600      0.26383400
H      -2.05275400      2.98930200      1.08518000
H      -0.45278300      1.04597400     -2.40083600
H       0.39224400      3.21607600     -3.22710500
H      -3.82331700      1.91073300     -1.19501500
H      -2.95838600     -2.29091000     -0.93705500
H      -5.06634000     -2.79465200     -2.14212400
H      -5.90946400      1.40777900     -2.41620800
H      -4.39879400     -0.24020600      1.25629400
H      -5.17039700      0.03108500      3.58146200
H      -1.27251600      1.43239200      4.72429800
H      -0.48361200      1.11122600      2.41402900
C      -1.10324200     -2.80207100      1.09016700
C      -0.04151700     -2.16049500      1.76578200
H      -2.10361500     -2.40635400      1.27729100
H       0.86080300     -2.72750500      1.99089400
H      -0.24885800     -1.34563300      2.45553100
C      -1.08076500     -4.26804600      0.74506500
H      -1.52209000     -4.85977100      1.56005600
H      -0.05546300     -4.61740500      0.58631100
H      -1.64983300     -4.48378100     -0.16574900
C      -6.85168500     -1.02102600     -3.14757300
F      -7.36412800     -2.22227700     -2.83907200
F      -6.60041000     -1.02682700     -4.46781400
F      -7.80917300     -0.10432200     -2.93452900
C      -3.76086100      0.98743000      5.69416300
F      -4.81152300      0.20983700      5.99696000
F      -4.15102500      2.26288600      5.86874700
F      -2.80061600      0.74539400      6.59987900
C       1.36069100      3.43146300      4.84664300
F       0.83698600      4.63123500      4.56378700
F       2.52309600      3.63697500      5.48629900
F       0.53816900      2.83201300      5.73323800
C       7.07697900     -3.27311000      1.28687100
F       7.84021900     -2.61627700      2.17547100
F       7.81462200     -3.42170300      0.17262600
F       6.85094800     -4.50177400      1.77623900
C       3.27125200      3.29320200     -4.84635000
F       2.18301400      4.08054400     -4.98384900
F       3.41894900      2.62617700     -5.99963200
F       4.32619700      4.10797300     -4.70579600
C       0.33520900      5.58308600     -1.95700800
F       1.64512000      5.57438700     -1.63640100
F      -0.20495600      6.66386600     -1.37550800
F       0.26180300      5.75128800     -3.28433900
