    93
 Generated by Multiwfn
P       1.75620900     -0.49787900     -1.09169100
C       2.38848600      0.85082000     -0.01860200
C       2.22744800      2.18979000     -0.40330100
C       2.64045500      3.22727900      0.42753700
C       3.23756600      2.94602000      1.65606000
C       3.40381400      1.62087300      2.04870700
C       2.96929100      0.58391100      1.22673600
Rh     -0.48145500     -1.18349200     -0.91391600
P      -1.47773800      0.49708800      0.45610700
C      -4.01106800      0.94603400      1.66987600
C      -3.30880600      0.37133700      0.60001500
C      -4.03716600     -0.25694500     -0.41471800
C      -5.42923500     -0.28654900     -0.38112700
C      -6.11517800      0.30196700      0.67716100
C      -5.40149200      0.91225600      1.70679800
H       0.07816100     -2.38574400     -1.77740600
C      -1.43746800     -0.83221600     -2.47971600
O      -1.98172800     -0.73967000     -3.50279400
H       1.78844500      2.42062200     -1.37104600
H       2.50390500      4.25733900      0.10912000
H       3.57114400      3.75489700      2.29990200
H       3.86405700      1.38805700      3.00502900
H       3.08856800     -0.44081700      1.56524900
H      -3.46761100      1.40792100      2.48840700
H      -3.50527300     -0.73930500     -1.22736700
H      -5.97519200     -0.77865600     -1.18130700
H      -5.92797200      1.36218400      2.54415300
C      -1.46773600     -2.73338400      0.24030900
C      -0.16315800     -2.53324100      0.75651800
H      -2.29810900     -2.28618700      0.78947800
H       0.59968300     -3.28084900      0.54315000
H      -0.01685400     -1.99282200      1.68881200
C      -1.85199800     -3.98475000     -0.50709700
H      -2.22149600     -4.75357900      0.18820400
H      -0.99251500     -4.39856500     -1.04535000
H      -2.64335500     -3.79439900     -1.24009800
H      -7.20104600      0.27667800      0.70666900
C       2.96168000     -1.88104300     -0.73440500
C       4.44599700     -1.52171000     -0.81773400
H       2.72681400     -2.16555800      0.30138300
C       2.68997400     -3.10158900     -1.63627200
H       4.71957200     -1.41773600     -1.87467800
H       4.66369200     -0.55833300     -0.34634700
C       5.28569500     -2.62666400     -0.15736300
C       3.90289700     -4.04593700     -1.69994900
H       2.43471400     -2.77188700     -2.65111200
H       1.81405300     -3.63745600     -1.25852300
C       4.68026800     -4.02169600     -0.38891900
H       6.30580300     -2.58734300     -0.55918700
H       5.36831000     -2.43220400      0.91972500
H       3.56527400     -5.06085400     -1.93925200
H       4.57181700     -3.74350000     -2.51667000
H       3.99686200     -4.27795500      0.43239200
H       5.46624400     -4.78546300     -0.38278800
C      -1.21647800      2.27022800     -0.05604100
C      -1.79141200      3.33499300      0.88875800
H      -0.12485100      2.36203000     -0.03920000
C      -1.68834300      2.50166000     -1.51181800
H      -2.82233400      3.08901900      1.16796900
H      -1.21505600      3.36761300      1.81827300
C      -1.78525200      4.69311600      0.19079000
C      -2.98547200      3.30187900     -1.56177400
H      -1.80329800      1.55371600     -2.04367400
H      -0.90681500      3.05002600     -2.05524100
C      -2.78720800      4.70704800     -0.97648900
H      -2.01674700      5.49153300      0.90525100
H      -0.76957100      4.89492300     -0.17728400
H      -3.34770500      3.36563100     -2.59417000
H      -3.75742800      2.76212700     -0.99883200
H      -2.43256700      5.39062200     -1.75791900
H      -3.75318000      5.09958500     -0.63578100
C       0.10722100      1.24330000      2.66493800
H       0.60205000      1.93943600      1.99578300
C       0.55536200      1.13912300      3.97882800
H       1.38077600      1.76345300      4.30928500
C      -0.04390300      0.24192300      4.85806500
H       0.30677100      0.16278100      5.88337900
C      -1.09574700     -0.55589100      4.41307600
H      -1.56862000     -1.26447000      5.08755500
C      -1.54885000     -0.44803400      3.10206000
H      -2.37668600     -1.06911300      2.77196400
C      -0.95925600      0.46048000      2.21147700
C       1.62984100     -0.38259600     -3.88469500
H       0.72562400     -0.96724400     -3.75529900
C       2.07367100     -0.06325900     -5.16606300
H       1.51054900     -0.40499100     -6.03020800
C       3.22661200      0.69711100     -5.33583400
H       3.57026000      0.95447100     -6.33403700
C       3.93772700      1.12956300     -4.21786100
H       4.83987900      1.72290300     -4.34098900
C       3.49899600      0.80195200     -2.93894900
H       4.06388800      1.14600300     -2.07805500
C       2.33340000      0.04505600     -2.75470100
