   105
 Generated by Multiwfn
P       1.72134000     -0.54012800     -0.88496400
C       2.25215900      0.71600200      0.34372500
C       2.26524400      2.07301100     -0.00583100
C       2.62093100      3.05102400      0.91822300
C       2.96296900      2.69345200      2.22026800
C       2.92991700      1.35161100      2.59075700
C       2.57349700      0.37409000      1.66430900
Rh     -0.59216300     -0.95128700     -1.05582700
P      -1.54314700      0.86310900      0.23517300
C      -4.17763500      1.60613000      1.08190500
C      -3.38854500      0.87001600      0.18553200
C      -4.04213000      0.14142500     -0.81467100
C      -5.43058000      0.15799400     -0.92747800
C      -6.19707400      0.89514000     -0.03039700
C      -5.56507800      1.61755200      0.97928300
H      -0.06255300     -2.19196100     -1.88457300
C      -1.30600700     -0.48068700     -2.71606300
O      -1.72032900     -0.31774700     -3.78996900
H       1.98953000      2.37136200     -1.01344200
H       2.63051300      4.09552000      0.61773100
H       3.24426400      3.45485000      2.94211400
H       3.18563400      1.05958800      3.60594400
H       2.55717600     -0.66566400      1.97808200
H      -3.70626200      2.18557700      1.86871400
H      -3.44911600     -0.45718900     -1.49845600
H      -5.91083200     -0.41494400     -1.71608100
H      -6.15171400      2.19468900      1.68892400
C      -1.89351500     -2.37677600     -0.06929600
C      -0.63187400     -2.37899500      0.57781800
H      -2.70458800     -1.83763000      0.42205300
H       0.03307700     -3.22368800      0.40770500
H      -0.50503800     -1.91819500      1.55422200
C      -2.36702800     -3.54023500     -0.90251000
H      -2.90019400     -4.27483100     -0.27992800
H      -1.52288700     -4.04843300     -1.38076900
H      -3.05330000     -3.21929900     -1.69419800
H      -7.28048200      0.90470100     -0.11290000
C       2.63782900     -2.06695800     -0.31813800
C       4.14643200     -1.93332100     -0.09131500
H       2.16869500     -2.29661900      0.64894000
C       2.37578000     -3.27061700     -1.24943800
H       4.65093100     -1.91070900     -1.06574300
H       4.40408900     -0.99806400      0.41481900
C       4.65633200     -3.12661400      0.73176500
C       3.43352700     -4.37267900     -1.07325800
H       2.35388200     -2.95678400     -2.30032900
H       1.37966700     -3.67112800     -1.04318600
C       3.92096700     -4.42851700      0.36987800
H       5.73413100     -3.24232700      0.56307100
H       4.53082500     -2.91396000      1.80128600
H       3.01390600     -5.33588900     -1.38533900
H       4.29135200     -4.18316500     -1.73258200
H       3.05406500     -4.56978600      1.02990600
H       4.57320700     -5.29409000      0.53192200
C       1.83957900      0.61479700     -3.50066800
C       4.01490100      0.64365800     -2.26245100
H       1.14501400     -0.10608600     -3.94314200
H       1.21611500      1.38826700     -3.04078400
C       2.72064500      1.24628000     -4.59252100
C       4.86293700      0.45613500     -3.53031800
H       4.56878800      0.31231200     -1.38139000
H       3.81622100      1.70968600     -2.10638200
C       3.99540100      0.43474800     -4.80217300
H       2.15068900      1.33044200     -5.52484300
H       2.99551600      2.27117400     -4.30793400
H       5.60072100      1.26599600     -3.58994500
H       5.43335600     -0.47894200     -3.45608500
H       4.56467900      0.81395200     -5.65844100
H       3.71853300     -0.59835100     -5.05290400
C      -1.09079300      2.61485300     -0.28590200
C      -2.00604800      3.73992600      0.22691500
H      -0.10315800      2.73621100      0.17477800
C      -0.90614300      2.74237200     -1.81239400
H      -3.05807400      3.46560700      0.09827500
H      -1.85956400      3.90543800      1.29938400
C      -1.75933400      5.02211500     -0.56575900
C      -2.11338100      3.39245000     -2.47606900
H      -0.69426700      1.76540000     -2.24899300
H      -0.02096900      3.36453000     -2.01090100
C      -2.25388700      4.85078800     -2.01165500
H      -2.26466000      5.86847800     -0.08627600
H      -0.68603200      5.25656900     -0.55286500
H      -2.02166500      3.34216200     -3.56683600
H      -3.01365000      2.81977800     -2.21713200
H      -1.68434200      5.51182600     -2.67676500
H      -3.30295900      5.16273400     -2.08547600
C      -1.05263000      0.73728500      2.05711900
C      -2.04440200     -0.09663200      2.88643200
H      -0.14772300      0.12693800      1.94612600
C      -0.61403200      1.99969300      2.83706000
H      -3.06080800      0.30308600      2.81064900
H      -2.09773000     -1.11861700      2.49959900
C      -1.61786200     -0.08601300      4.35188900
C      -1.61950300      2.41970200      3.90263400
H      -0.37237500      2.83198400      2.17335100
H       0.33222800      1.76258000      3.33816100
C      -1.78828200      1.31691800      4.95967700
H      -2.19570700     -0.82106300      4.92350500
H      -0.56709200     -0.40146500      4.41711400
H      -1.29580300      3.35393500      4.37633400
H      -2.58738700      2.64242900      3.43597300
H      -1.05579600      1.45932800      5.76377000
H      -2.77812000      1.40454900      5.42400400
C       2.68487800     -0.09860700     -2.43235600
H       2.92908100     -1.09616000     -2.82468300
