   117
 Generated by Multiwfn
C       3.78227600      1.94499900     -3.72347600
C       4.02527600      2.48947900     -2.45722600
C       3.41873700      1.90170300     -1.34869200
C       2.57776900      0.79115100     -1.49087100
C       2.34418100      0.28054200     -2.76621000
C       2.94241300      0.84704600     -3.89648000
P       1.86201400     -0.14224600     -0.06946700
C       3.32306300     -2.52364900      0.41024200
C       3.35163600     -1.13393500      0.41060100
C       4.53775300     -0.48195200      0.77873700
C       5.67344200     -1.19906700      1.13730900
C       5.61201000     -2.59892800      1.12846500
C       4.45114300     -3.27407200      0.76831800
C       1.85124100      1.07708100      1.30122800
C       1.49416300      2.41749600      1.11146200
C       1.46404700      3.30950200      2.18431200
C       1.78623100      2.83830700      3.45983000
C       2.11468000      1.50091100      3.68341700
C       2.13692200      0.62846100      2.59441600
Rh     -0.10867300     -1.36685100     -0.40674000
C      -0.85988500      4.55381800     -1.40597100
C      -1.61874400      4.39483400     -0.24168700
C      -1.88112500      3.10316400      0.21332400
C      -1.40322900      1.99098100     -0.48631300
C      -0.65635000      2.17621100     -1.64938500
C      -0.37408500      3.46054800     -2.12351400
P      -1.76104300      0.26606200      0.00559600
C      -4.20336600      0.96864700     -1.24856000
C      -3.31369900     -0.06167500     -0.92629500
C      -3.64181800     -1.37621900     -1.25566400
C      -4.84496900     -1.67729200     -1.90157300
C      -5.71214100     -0.63182300     -2.21220200
C      -5.40560900      0.69671100     -1.89823900
C      -2.38828600      0.39761200      1.72298300
C      -3.63172900     -0.13748400      2.06690700
C      -4.08994300     -0.10302300      3.38575000
C      -3.28476900      0.49443100      4.35367400
C      -2.03488200      1.03494700      4.03985800
C      -1.58766700      0.97187200      2.71856300
H       0.83960100     -2.58858600     -0.74900500
C      -0.58927900     -1.57347600     -2.19825600
O      -0.82151900     -1.76311200     -3.31996600
H       4.25324800      2.39706200     -4.59506500
H       3.60448900      2.32234300     -0.36467600
H       1.68547700     -0.57656800     -2.88042400
H       2.40555600     -3.03231200      0.12708000
H       4.57701600      0.60352200      0.79588500
H       6.49480400     -3.17047900      1.41148300
H       1.24383000      2.77953700      0.11936300
H       1.77881000      3.53124500      4.30012600
H       2.40490600     -0.41255200      2.75606400
H      -0.64348400      5.55966500     -1.76296400
H      -2.46007900      2.96339900      1.12228000
H      -0.26835300      1.31034500     -2.18065300
H      -3.95712300      1.99584600     -0.99312100
H      -2.94456800     -2.17308900     -1.00909200
H      -6.65201000     -0.85366800     -2.71562700
H      -4.26299200     -0.57786000      1.30020400
H      -3.63921100      0.54468200      5.38205900
H      -0.61680800      1.38899700      2.46213900
C      -1.11711800     -2.75392600      0.95052300
C      -0.06152600     -2.11153800      1.63797700
H      -2.12311500     -2.38291800      1.15585300
H       0.85430500     -2.66435600      1.84275200
H      -0.27921900     -1.31515300      2.34683100
C      -1.07066300     -4.21303400      0.57665200
H      -1.48157400     -4.83391100      1.38705700
H      -0.04132000     -4.53623600      0.38936200
H      -1.65366300     -4.42306700     -0.32731400
C      -5.16952600     -3.09794800     -2.26955100
H      -6.22255400     -3.21098900     -2.54484400
H      -4.56398100     -3.42730100     -3.12303200
H      -4.95706000     -3.78238600     -1.44088000
C      -5.41826000     -0.70800100      3.74479400
H      -6.15410400     -0.55546000      2.94836100
H      -5.32668300     -1.79066900      3.89896500
H      -5.81826500     -0.27766100      4.66826800
C       0.46250700      3.64456300     -3.35690000
H       1.49599800      3.32918100     -3.17454200
H       0.08491900      3.03598900     -4.18611500
H       0.47542700      4.69030800     -3.67911200
C       2.47532200      1.00902400      5.05737900
H       3.56333900      0.92362900      5.17123000
H       2.11425100      1.68995300      5.83440700
H       2.05224700      0.01683000      5.24788700
C       4.38708400     -4.77603000      0.76247500
H       3.61252700     -5.14235700      1.44685300
H       4.13972700     -5.15691100     -0.23543800
H       5.34078500     -5.21874000      1.06536500
C       2.65270600      0.29286300     -5.26290800
H       3.34116300      0.69429400     -6.01267500
H       2.73234100     -0.79943800     -5.27405700
H       1.63185200      0.54345800     -5.57750900
C      -1.18539600      1.65282800      5.11426300
H      -0.46731000      0.92507100      5.51220500
H      -0.60471100      2.49482300      4.72735200
H      -1.79716200      2.00362800      5.95153000
C       1.08553400      4.74918500      1.97971300
H       1.05544800      5.00367300      0.91674700
H       0.09119000      4.95520500      2.39450000
H       1.79196500      5.42160200      2.47953300
C       6.94518700     -0.49430900      1.51952900
H       7.32191900     -0.84619700      2.48692700
H       7.73541300     -0.67525200      0.78067000
H       6.79472700      0.58728500      1.58832000
C       4.92053600      3.68733200     -2.30178800
H       5.91870400      3.49330100     -2.71141500
H       4.51684400      4.55670800     -2.83463300
H       5.03581800      3.96357200     -1.24943700
C      -6.34879700      1.80663100     -2.27057600
H      -6.31827900      2.00406500     -3.34933300
H      -7.38428800      1.55343100     -2.01737500
H      -6.09009700      2.73744600     -1.75690800
C      -2.15523900      5.59362000      0.48928900
H      -1.38888500      6.36791000      0.60535800
H      -2.99199200      6.04601200     -0.05743900
H      -2.51870300      5.32235800      1.48515500
