    81
 Generated by Multiwfn
C       3.30069600      2.06691700     -3.87270300
C       3.69645800      2.51589000     -2.61631200
C       3.28222500      1.82032800     -1.48602800
C       2.46053500      0.69325200     -1.59387200
C       2.09167400      0.25734800     -2.86948600
C       2.50780600      0.93191000     -4.01174200
P       1.85407700     -0.28445900     -0.15477300
C       3.35712500     -2.66330700      0.17914500
C       3.36510100     -1.27010400      0.24271400
C       4.55615600     -0.62459000      0.60146900
C       5.70612000     -1.34664700      0.88832000
C       5.66764900     -2.73755400      0.81548700
C       4.50166000     -3.40446200      0.46243600
C       1.89629900      0.92026100      1.22775200
C       1.53031600      2.26210300      1.07066700
C       1.43262300      3.11196000      2.16841500
C       1.69421500      2.61440800      3.44026400
C       2.06246800      1.28394900      3.62684000
C       2.16013900      0.44750300      2.52150700
Rh     -0.15059800     -1.48131800     -0.38647900
C      -0.47489300      4.37399300     -1.44097500
C      -1.17183700      4.28837100     -0.23908300
C      -1.59694600      3.04226000      0.21369800
C      -1.32590000      1.88735300     -0.52400500
C      -0.64803600      2.00438600     -1.74295800
C      -0.21744600      3.23995000     -2.20826800
P      -1.75706400      0.19451500      0.02455300
C      -4.19271900      0.96189700     -1.19294300
C      -3.34462600     -0.09545600     -0.84728400
C      -3.74399500     -1.40511800     -1.13020500
C      -4.96580600     -1.66117100     -1.74286800
C      -5.78952200     -0.59211700     -2.08048400
C      -5.41330300      0.72135400     -1.81264100
C      -2.31356800      0.42366800      1.75273800
C      -3.60870700      0.11054800      2.17458500
C      -3.97396700      0.24919300      3.51075400
C      -3.03653200      0.71127300      4.42802800
C      -1.73909200      1.02764700      4.03344000
C      -1.38490400      0.87128200      2.70015000
H       0.75770400     -2.73089300     -0.72272900
C      -0.70802900     -1.75567500     -2.15018800
O      -0.99156400     -2.00152200     -3.24681600
H       4.31894300      3.39972400     -2.52451100
H       1.45595200     -0.61763200     -2.96813500
H       2.44058200     -3.17676800     -0.09459400
H       4.59323100      0.45828600      0.67058700
H       6.62425400     -0.84015800      1.16677500
H       4.48514300     -4.48809900      0.41151500
H       1.30783600      2.65979300      0.08642800
H       1.14240300      4.14854800      2.03407300
H       2.44321800     -0.59015200      2.67176900
H      -1.37105900      5.18431100      0.33974500
H      -2.12460200      2.97588300      1.16010900
H      -0.42877800      1.11444000     -2.32440700
H       0.32869200      3.31942300     -3.14238700
H      -3.08502000     -2.23076600     -0.87709500
H      -6.06673500      1.54249100     -2.08787900
H      -4.34731900     -0.24040600      1.46090600
H      -4.98018200      0.00605900      3.83550400
H      -1.01600500      1.38793500      4.75789800
H      -0.37408700      1.11001400      2.39176900
C      -1.15296500     -2.82410700      1.02380600
C      -0.04508200     -2.22186900      1.66021400
H      -2.13320400     -2.41245000      1.27298900
H       0.85669100     -2.81015200      1.82471000
H      -0.20350300     -1.42162400      2.37954900
C      -1.18165200     -4.28154200      0.64432400
H      -1.59257500     -4.88402000      1.46748900
H      -0.17428800     -4.64848800      0.42313200
H      -1.80277200     -4.46296100     -0.23973400
H       2.21273700      0.58726000     -4.99729000
H      -5.27199300     -2.67797700     -1.96474400
H      -3.89943200      1.98651600     -0.98339000
H       3.59376000      2.18522400     -0.51252300
H       2.26499400      0.90777100      4.62418600
Cl      1.54236600      3.66131000      4.81922800
Cl      7.10240000     -3.64930800      1.17685100
Cl      3.80219900      2.94007600     -5.28857600
Cl      0.09121900      5.92111600     -1.99123500
Cl     -7.31383100     -0.90031000     -2.85487600
Cl     -3.48985500      0.89669600      6.09499300
