    87
 Generated by Multiwfn
C       3.43741700      2.47658000     -3.60242200
C       3.65565800      2.87247800     -2.28236700
C       3.21375100      2.09671800     -1.21345700
C       2.52311000      0.90294400     -1.43654000
C       2.31585400      0.49498700     -2.75969500
C       2.76708700      1.26704300     -3.82144200
P       1.91845400     -0.18168900     -0.08407800
C       3.24858800     -2.54393900      0.63880600
C       3.40912500     -1.21120000      0.25347400
C       4.70186100     -0.67951100      0.17585300
C       5.80716600     -1.46696100      0.47851500
C       5.63653700     -2.79512200      0.86779800
C       4.35538400     -3.33184800      0.94925000
C       1.92066700      0.92345700      1.38237600
C       1.33096300      2.19327400      1.32000700
C       1.17171200      2.95550700      2.47241400
C       1.58974300      2.46161300      3.70626300
C       2.17803100      1.20100400      3.77792200
C       2.34593300      0.43804300      2.62463700
Rh     -0.08270500     -1.32560900     -0.44218000
C      -0.69290300      4.53810500     -1.35112600
C      -1.47707700      4.33028000     -0.21831100
C      -1.84108000      3.03953000      0.15720200
C      -1.41866500      1.93736700     -0.59408400
C      -0.64860100      2.15841400     -1.74174100
C      -0.28758900      3.44820200     -2.11890100
P      -1.76501900      0.20970700     -0.07077300
C      -3.87893900      0.63143800     -1.92686300
C      -3.32867200     -0.18076400     -0.93668200
C      -3.96647100     -1.39082800     -0.62926300
C      -5.12467300     -1.76757100     -1.29164600
C      -5.67524200     -0.96332000     -2.29899700
C      -5.03416500      0.23748200     -2.60153200
C      -2.34141500      0.44556600      1.65736300
C      -3.68392400      0.68128600      1.97632300
C      -4.06720500      0.89602700      3.29781100
C      -3.11405900      0.88802200      4.31388600
C      -1.77525100      0.66259200      4.00314300
C      -1.39212500      0.43738200      2.68486300
H      -0.05634500     -0.61784300     -1.87051200
C      -0.23257400     -2.24257900      1.21651000
O      -0.35668100     -2.83114600      2.20342100
H       4.17836700      3.80539200     -2.08354600
H       3.39764800      2.43830300     -0.19933300
H       1.77606100     -0.42862200     -2.95045500
H       2.58842900      0.93103200     -4.84070400
H       2.24791200     -2.96063600      0.68554000
H       4.84617300      0.35275300     -0.12978200
H       6.80554300     -1.04327700      0.40989800
H       6.50175300     -3.40913600      1.10258300
H       4.21338600     -4.36687200      1.24809300
H       0.98528700      2.58572200      0.36950700
H       0.70634400      3.93479200      2.40187600
H       1.45688700      3.05507000      4.60658800
H       2.51207800      0.80733900      4.73422800
H       2.80521700     -0.54429800      2.69328500
H      -0.39658000      5.54509200     -1.63213700
H      -1.80127400      5.17552400      0.38307200
H      -2.43607100      2.88973600      1.05250900
H      -0.29899800      1.30975100     -2.32040400
H       0.33393000      3.59320800     -2.99818200
H      -3.40683800      1.57664000     -2.17870700
H      -3.54041200     -2.04217600      0.13062600
H      -5.60718900     -2.70824500     -1.03494800
H      -5.44532900      0.88214400     -3.37529500
H      -4.43253300      0.69579300      1.18984300
H      -5.11378500      1.07120900      3.53234900
H      -3.41516500      1.05500200      5.34459600
H      -1.02117600      0.65769200      4.78515100
H      -0.34651300      0.26312400      2.45296800
C      -0.93039200     -2.94131600     -1.64130000
C       0.47652200     -3.09684200     -1.55133100
H      -1.54284500     -3.56990400     -0.99328100
H       1.09332600     -2.86712100     -2.41885100
H       0.90025000     -3.85546500     -0.89678700
C      -1.59583600     -2.56956600     -2.94160100
H      -1.88460000     -3.47615600     -3.49433800
H      -0.91217000     -1.99144000     -3.57302700
H      -2.50102200     -1.97470500     -2.79198800
C      -6.90762400     -1.39966800     -3.03868000
H      -7.32219700     -0.58514600     -3.64003000
H      -6.68467000     -2.23326200     -3.71625000
H      -7.68596700     -1.74475500     -2.34900200
C       3.90924900      3.31277500     -4.75769900
H       4.36182200      4.24803900     -4.41550700
H       4.65664000      2.77611500     -5.35427800
H       3.08147200      3.56382400     -5.43116100
