    87
 Generated by Multiwfn
C       3.46401100      2.44680700     -3.63649300
C       3.43817600      3.04916000     -2.38245600
C       3.01374500      2.33151400     -1.26549700
C       2.59149800      1.00641400     -1.39109600
C       2.62249000      0.40859600     -2.65761100
C       3.06319100      1.11766400     -3.76891000
P       1.96362300     -0.04915500     -0.01911700
C       3.14350200     -2.51468400      0.37815800
C       3.41123800     -1.14238400      0.34586400
C       4.72817600     -0.69345900      0.60396500
C       5.70809100     -1.65139300      0.88115700
C       5.42749700     -3.01393900      0.90912200
C       4.13375800     -3.45129100      0.65723500
C       1.91511100      1.02870800      1.46525600
C       1.29155900      2.28329200      1.43291900
C       1.10960700      3.01529700      2.60180500
C       1.53290400      2.50385300      3.82578500
C       2.14222700      1.25195400      3.87164400
C       2.33290600      0.51997800      2.70250100
Rh     -0.07091100     -1.11602900     -0.52081200
C      -0.78502700      4.80195400     -1.15019400
C      -1.64474700      4.52952500     -0.08795300
C      -1.97293100      3.21409000      0.23071300
C      -1.44408200      2.15147200     -0.51062300
C      -0.57380600      2.43615700     -1.56833000
C      -0.25197700      3.75021700     -1.89212000
P      -1.77131000      0.39477100     -0.06988600
C      -4.06714500      0.49024200     -1.90768500
C      -3.37028600     -0.11473600     -0.84361100
C      -3.85227700     -1.32207700     -0.31111400
C      -5.00570000     -1.92617700     -0.78759700
C      -5.70270900     -1.32816400     -1.83419300
C      -5.22919900     -0.14150400     -2.37582800
C      -2.30767800      0.56788800      1.68312700
C      -3.63117100      0.86402500      2.03500600
C      -3.98441800      1.04175300      3.36938300
C      -3.02039600      0.93000800      4.36980900
C      -1.70288000      0.63862900      4.02837300
C      -1.34981200      0.45607000      2.69423100
H       0.04305600     -0.31356200     -1.89390900
C      -0.26941900     -2.15413900      1.06107200
O      -0.41082700     -2.81937000      1.99518000
H       3.75379200      4.08248700     -2.26550400
H       3.02073600      2.81400100     -0.29408500
H       2.27892200     -0.61631500     -2.76781700
H       3.08345900      0.63486200     -4.74217500
H       2.13110300     -2.84013300      0.16841600
H       6.72099900     -1.31097600      1.08400700
H       6.21864900     -3.72524500      1.13071000
H       3.89023300     -4.50983100      0.67719200
H       0.92276000      2.68425000      0.49613600
H       0.61872600      3.98317100      2.55077100
H       1.38227800      3.07307600      4.73875300
H       2.47382000      0.83986800      4.82098300
H       2.80868700     -0.45563600      2.75202500
H      -0.52491600      5.82897500     -1.39179000
H      -2.05941000      5.34355300      0.50067300
H      -2.63331700      3.01702600      1.06895800
H      -0.12641600      1.61659800     -2.12175800
H       0.43706300      3.94537900     -2.70877800
H      -3.29981800     -1.79871900      0.49545100
H      -5.35124600     -2.85831900     -0.34959800
H      -5.76932100      0.32098500     -3.19870200
H      -4.38982100      0.94964900      1.26239400
H      -5.01593000      1.26638300      3.62736600
H      -3.29819000      1.06567700      5.41159000
H      -0.94095400      0.54982100      4.79750300
H      -0.32040600      0.23058700      2.43739900
C      -1.00921500     -2.57794800     -1.83845300
C       0.38272300     -2.83481700     -1.76519700
H      -1.66601500     -3.20584800     -1.23497900
H       1.01233900     -2.58870400     -2.61913900
H       0.74567200     -3.67478000     -1.17604900
C      -1.64822800     -2.06691300     -3.10287500
H      -1.99166800     -2.90915700     -3.72183600
H      -0.93132400     -1.48270100     -3.69031700
H      -2.51727800     -1.43484600     -2.90089800
H      -6.60543500     -1.78522100     -2.22996400
H       3.79599400      3.00716100     -4.50617900
C      -3.63702900      1.75119000     -2.60601000
H      -3.58619700      2.60795700     -1.92839000
H      -2.64507200      1.64487700     -3.05618500
H      -4.34307000      1.99236900     -3.40609200
C       5.14097700      0.75027000      0.59435000
H       6.12828600      0.86512700      1.05146000
H       5.19556300      1.14080800     -0.42745400
H       4.43762900      1.38180500      1.14395500
