   105
 Generated by Multiwfn
C       3.20930100      1.93881600     -4.01165400
C       3.65948300      2.36004000     -2.75799600
C       3.28403200      1.65394800     -1.61893800
C       2.44099500      0.54422900     -1.69196000
C       2.01950000      0.12494100     -2.95900200
C       2.39666300      0.80416900     -4.10553100
P       1.95220300     -0.42854700     -0.21099300
C       3.61706700     -2.64189600     -0.47720000
C       3.51725100     -1.35049600      0.05686300
C       4.63854700     -0.80569000      0.68164400
C       5.82543900     -1.52598500      0.79576800
C       5.90623600     -2.81312600      0.25917000
C       4.79342000     -3.36510200     -0.38494600
C       1.96390900      0.81156000      1.13572000
C       1.51846400      2.12540200      0.94141100
C       1.35343600      2.98860400      2.01366200
C       1.62287500      2.56027300      3.31564200
C       2.06453800      1.25094800      3.52929400
C       2.22267200      0.39336600      2.44426900
Rh     -0.00220800     -1.68332200     -0.15819900
C      -0.54600000      4.08813300     -1.68689200
C      -1.21393300      3.99454100     -0.46449200
C      -1.60100300      2.74389200      0.01927000
C      -1.33154700      1.57849400     -0.69530800
C      -0.68348500      1.69600900     -1.93366300
C      -0.29254700      2.92650200     -2.42806900
P      -1.71393800     -0.11026100     -0.09027700
C      -4.00593800      0.47998000     -1.65717200
C      -3.21556700     -0.50350200     -1.06097500
C      -3.60906800     -1.84234200     -1.19367300
C      -4.75455400     -2.18439800     -1.89078300
C      -5.53567100     -1.18861100     -2.48873500
C      -5.15644000      0.15036200     -2.37050900
C      -2.38876700      0.24468200      1.57416100
C      -3.75387800      0.26795800      1.85083500
C      -4.22992200      0.58447800      3.12415700
C      -3.32797000      0.90362900      4.13899100
C      -1.95350900      0.89342800      3.86947400
C      -1.49403100      0.55685300      2.61017700
H       0.13508000     -1.28010800      1.37370900
C      -0.22617800     -2.29153300     -1.94813500
O      -0.40375100     -2.71596700     -3.00892200
H       4.30046900      3.22872900     -2.65604400
H       3.65074600      1.99349700     -0.65461000
H       1.37740800     -0.74534700     -3.04840600
H       2.06577500      0.48041400     -5.08753500
H       2.74294700     -3.07872500     -0.95353900
H       4.59243500      0.19619300      1.09981800
H       6.67405500     -1.07521700      1.29874100
H       4.87456500     -4.36822900     -0.79214400
H       1.27689200      2.47840100     -0.05616500
H       0.99179700      4.00060600      1.86164000
H       2.27487000      0.88488000      4.52821300
H       2.53541400     -0.63122800      2.62903400
H      -1.43075000      4.87874200      0.12521800
H      -2.10080900      2.68538900      0.98126800
H      -0.46357800      0.80020500     -2.50559800
H       0.23507200      3.01039900     -3.37302800
H      -3.72102300      1.52484800     -1.57135000
H      -2.99422600     -2.61579000     -0.74380900
H      -5.06154700     -3.21989400     -2.00075100
H      -5.74069600      0.94063500     -2.82910100
H      -4.46852600      0.03627000      1.06655400
H      -5.29925300      0.58037000      3.30498100
H      -1.26321200      1.14696100      4.66844400
H      -0.42528400      0.54289300      2.42180200
C       0.52351600     -3.63303400      0.66224500
C      -0.88680400     -3.46558100      0.67507500
H       0.93102900     -4.27024900     -0.12404700
H      -1.39117100     -3.26339800      1.61865800
H      -1.49110800     -4.00931100     -0.04917300
C       1.32407700     -3.64963000      1.93962100
H       1.41565000     -4.67693500      2.32302200
H       0.83319600     -3.04211000      2.70777200
H       2.33849500     -3.26291700      1.79857000
O       7.00657600     -3.60099700      0.31583900
C       8.14576100     -3.08909500      0.96380900
H       7.94250100     -2.86250700      2.01901000
H       8.90447500     -3.87114200      0.90395800
H       8.52027500     -2.18356500      0.46809400
O       3.50485900      2.55466600     -5.18040500
C       4.30121900      3.71409600     -5.12509900
H       5.29611500      3.50148900     -4.71185600
H       4.40650700      4.05736000     -6.15550200
H       3.82387300      4.50180200     -4.52722200
O       1.41982000      3.47292600      4.29677900
C       1.61963800      3.05715400      5.62621300
H       2.66023300      2.75496900      5.80474800
H       1.38404700      3.91972600      6.25164400
H       0.95420300      2.22514300      5.89339500
O      -0.10607700      5.24659800     -2.23598400
C      -0.30460100      6.43083500     -1.50300500
H       0.19781100      6.38964100     -0.52699800
H       0.13238100      7.23344900     -2.09952000
H      -1.37187800      6.63710500     -1.34745000
O      -6.63009000     -1.61952000     -3.15961600
C      -7.43038400     -0.65222600     -3.79550700
H      -6.86470000     -0.09695700     -4.55533700
H      -8.24033600     -1.20067500     -4.27916300
H      -7.85548700      0.05846600     -3.07415700
O      -3.67856500      1.23391700      5.40608300
C      -5.05016800      1.24812300      5.71956600
H      -5.50681600      0.25930800      5.57991300
H      -5.11751300      1.52987100      6.77176100
H      -5.59575000      1.98330800      5.11290300
