   105
 Generated by Multiwfn
C      -4.09230000      3.47151700     -1.60295100
C      -4.11306900      2.26097000     -2.29445900
C      -3.45721700      1.13932800     -1.80320900
C      -2.75578800      1.22171300     -0.59108900
C      -2.73488500      2.42623600      0.10303400
C      -3.39546800      3.55214400     -0.39613800
P      -1.91530700     -0.22166000      0.18070400
C      -3.08239700     -1.61867500      2.29407900
C      -3.32240400     -1.02430600      1.06205100
C      -4.60658200     -1.09218800      0.50151400
C      -5.61653900     -1.75323300      1.18403000
C      -5.38064000     -2.35675600      2.42131900
C      -4.10431800     -2.28756000      2.97882600
C      -1.69318100     -1.37141600     -1.23242500
C      -1.12468800     -0.91261700     -2.43070500
C      -0.79391300     -1.82113200     -3.42505000
C      -1.00489300     -3.18970700     -3.25595400
C      -1.56748300     -3.64620200     -2.06234500
C      -1.91500000     -2.73525400     -1.05838500
Rh      0.00660400      0.17832100      1.43426400
C       0.51283000      2.47973200     -4.02802200
C       1.41045500      1.41222100     -4.05671700
C       1.83570200      0.79474200     -2.88735300
C       1.34511200      1.24137300     -1.65277400
C       0.46675300      2.32103600     -1.61617900
C       0.05233500      2.94760000     -2.79475200
P       1.73911400      0.38380200     -0.07463000
C       3.64278700      2.50825500     -0.00931900
C       3.17591200      1.32327300      0.56769500
C       3.77763800      0.83405300      1.72551800
C       4.84316800      1.51406300      2.31582900
C       5.30543100      2.70578400      1.74775200
C       4.69826900      3.18816600      0.59049700
C       2.54638700     -1.15535600     -0.67092300
C       3.91482900     -1.22090300     -0.92129300
C       4.49167600     -2.39887700     -1.40800400
C       3.69127000     -3.51574300     -1.65695900
C       2.32077000     -3.43855100     -1.41071700
C       1.74415100     -2.27683700     -0.91739300
H      -0.23571600      1.70078900      1.03270200
C       0.40109000     -1.59610100      1.99817400
O       0.67235200     -2.65430500      2.37391300
H      -4.61012100      4.33247500     -2.01094600
H      -4.65410600      2.19827900     -3.23520500
H      -3.47883000      0.20998800     -2.36273200
H      -2.18301600      2.51543500      1.03390100
H      -2.09930500     -1.56172300      2.74773500
H      -4.81224500     -0.62538400     -0.45619200
H      -6.61322200     -1.80597300      0.75370200
H      -6.19051700     -2.86537300      2.93246800
H      -0.93361800      0.14471100     -2.57628000
H      -0.34699800     -1.46180800     -4.34801700
H      -0.72736200     -3.87865600     -4.04575700
H      -2.34846400     -3.12369300     -0.14149800
H       0.18815600      2.93485500     -4.95726400
H       1.77563100      1.05538400     -5.01635600
H       2.51889500     -0.04600700     -2.93356400
H       0.05098100      2.66738200     -0.67584800
H       3.18310000      2.89632300     -0.91250900
H       3.41244800     -0.07217600      2.20148100
H       6.12362500      3.25926400      2.19488500
H       5.06095200      4.11351000      0.15064500
H       4.56335100     -0.36917600     -0.74243600
H       4.11948000     -4.43904300     -2.03126100
H       1.69470500     -4.30609600     -1.60129600
H       0.67708100     -2.23566400     -0.73051100
C       0.65858600      1.13888000      3.28317200
C      -0.71756400      0.81003600      3.37419400
H       1.36310800      0.47711200      3.78852000
H      -1.46051300      1.60275000      3.30088400
H      -1.03559200     -0.04086100      3.97265500
C       1.11872600      2.57152100      3.19255000
H       1.33152000      2.96762300      4.19687200
H       0.34338100      3.19817200      2.73797800
H       2.03030300      2.67891500      2.59773300
O      -3.75236300     -2.82648900      4.17114700
C      -4.74869000     -3.50741900      4.89971800
H      -5.13481400     -4.37081200      4.34250200
H      -4.26860100     -3.85541600      5.81530100
H      -5.58286700     -2.84234300      5.15806300
O       5.35053600      0.95232200      3.44031300
C       6.41162700      1.62043100      4.08455700
H       6.11378500      2.62403900      4.41440700
H       6.66376800      1.01543900      4.95659200
H       7.29167400      1.70072100      3.43339200
O      -3.29379200      4.67230500      0.35889700
C      -3.90164900      5.84616000     -0.12819700
H      -3.69390800      6.62296500      0.60885300
H      -3.47889500      6.14441200     -1.09673600
H      -4.98796200      5.72549300     -0.23049000
O      -0.80272000      3.98539600     -2.63652100
C      -1.40113200      4.52110600     -3.79308100
H      -1.94414100      3.74934200     -4.35322800
H      -2.10959100      5.27385300     -3.44433300
H      -0.66131100      4.99714600     -4.44983900
O       5.83247600     -2.35358600     -1.60919000
C       6.46149300     -3.52091800     -2.08652400
H       6.07721300     -3.81184800     -3.07302600
H       7.52208600     -3.27950400     -2.17127700
H       6.33602400     -4.35991800     -1.38990300
O      -1.81550600     -4.94932600     -1.78003900
C      -1.45603000     -5.90701000     -2.74925800
H      -0.37750100     -5.88663500     -2.95464400
H      -1.72367400     -6.87754400     -2.32908800
H      -2.00303900     -5.75547200     -3.68879500
