    89
 Generated by Multiwfn
C       3.43580400      2.61390900     -3.40600700
C       3.45494500      3.07370100     -2.09587600
C       3.07549400      2.21659700     -1.06384500
C       2.67417000      0.90333400     -1.31159100
C       2.70200500      0.44154700     -2.64630000
C       3.06505800      1.30035400     -3.68507300
P       2.03405800     -0.21055700      0.00819700
C       3.11100500     -2.65460000      0.82165900
C       3.36371300     -1.47396000      0.11666600
C       4.63284200     -1.27391000     -0.43403300
C       5.62455000     -2.24084400     -0.29141400
C       5.36469600     -3.41261900      0.41551700
C       4.10635100     -3.61465600      0.97814100
C       2.36978100      0.78513400      1.51936300
C       1.55035800      1.89423500      1.77317000
C       1.72918300      2.66543600      2.91637200
C       2.71624800      2.32510200      3.84035100
C       3.52921400      1.22095500      3.60214500
C       3.36569500      0.46052600      2.44514400
Rh     -0.12768800     -1.05859400     -0.20449400
C      -1.21016600      4.75423200     -1.46911500
C      -2.40215800      4.45774600     -0.81123300
C      -2.64583600      3.15867700     -0.35880800
C      -1.67884400      2.14689300     -0.54499300
C      -0.50434400      2.47605100     -1.22197500
C      -0.25831100      3.76615800     -1.68631700
P      -1.87189300      0.43092900      0.08636600
C      -3.91787100      0.45005300     -1.88463900
C      -3.39516800     -0.15933000     -0.74274900
C      -3.97728000     -1.34653400     -0.28072800
C      -5.06675000     -1.90382600     -0.93881500
C      -5.58134400     -1.29130300     -2.08167500
C      -5.00306700     -0.11602200     -2.55216200
C      -2.42976900      0.65504200      1.83120800
C      -3.77479600      0.70831700      2.21342000
C      -4.12286000      0.85820400      3.55212400
C      -3.13441100      0.97495800      4.52810200
C      -1.79382700      0.92586500      4.15740600
C      -1.44732800      0.75232100      2.82040500
H      -0.04264000     -0.40866300     -1.66262300
C      -0.30933500     -1.89270100      1.49326500
O      -0.44178100     -2.45167600      2.49686100
H       3.71905400      3.27036100     -4.22421900
H       3.75942100      4.09115200     -1.86948200
H       3.08308900      2.58430400     -0.04371900
H       3.07223100      0.94914600     -4.71059100
H       2.12700500     -2.81806000      1.25002000
H       4.84756300     -0.35595300     -0.97366700
H       6.60475300     -2.07510000     -0.73061800
H       6.13998500     -4.16569400      0.52750700
H       0.76446700      2.15156900      1.06710800
H       1.08416500      3.52210700      3.09189400
H       2.84826700      2.91723900      4.74176500
H       4.30122300      0.94844100      4.31682800
H       4.01618800     -0.38994100      2.26780800
H      -1.03728800      5.76962700     -1.81614800
H      -3.14006300      5.23838800     -0.66307200
H       0.22876100      1.69227200     -1.38114400
H       0.67189800      3.98498900     -2.20117100
H      -3.47017100      1.36560600     -2.26070000
H      -3.56403900     -1.83992900      0.59610500
H      -5.50945800     -2.82367600     -0.56606400
H      -6.42629000     -1.73181900     -2.60378300
H      -4.55141300      0.63207400      1.46043800
H      -5.17242100      0.88696000      3.83381400
H      -3.41000600      1.09472200      5.57252500
H      -1.01082600      1.00599800      4.90677900
H      -0.40045100      0.68223400      2.54409900
C      -1.01629800     -2.71829700     -1.35909500
C       0.36369800     -2.94209400     -1.17512000
H      -1.70527900     -3.24667800     -0.69921700
H       1.05450800     -2.77210200     -1.99586200
H       0.71124300     -3.65846500     -0.43416900
C      -1.59111500     -2.38562300     -2.71067000
H      -1.90587200     -3.30608800     -3.22510200
H      -0.84409600     -1.88399800     -3.33496100
H      -2.46600700     -1.73426600     -2.64128500
H       3.89488300     -4.52469600      1.53303900
H      -5.39592200      0.36609800     -3.44351900
O       2.38559700     -0.85655500     -2.83261400
C       2.30211400     -1.34523300     -4.15333200
H       3.27362600     -1.29445500     -4.66023600
H       1.99463800     -2.38781000     -4.06763900
H       1.55439200     -0.79195200     -4.73429400
O      -3.79220600      2.78917200      0.24695800
C      -4.75389700      3.77425200      0.54627600
H      -5.16772400      4.22117400     -0.36623800
H      -5.54706500      3.25815400      1.08885500
H      -4.33380300      4.56312800      1.18192000
