    87
 Generated by Multiwfn
C       3.47153900      3.98592800      0.88546800
C       3.73881400      2.88894500      1.70642600
C       3.28985600      1.62413600      1.34394300
C       2.55496200      1.43797200      0.16788900
C       2.31000700      2.54174200     -0.65887500
C       2.76498300      3.80322100     -0.30658200
P       1.91640400     -0.20261100     -0.37233800
C       3.11846400     -1.62759500     -2.46345100
C       3.35041700     -0.83759300     -1.33560300
C       4.66994000     -0.58997500     -0.93840300
C       5.73302400     -1.12297800     -1.65864800
C       5.49197100     -1.91523200     -2.78065300
C       4.18356700     -2.16891900     -3.18059000
C       2.02597700     -1.22397200      1.14873100
C       1.49340100     -0.76033800      2.35960000
C       1.41804700     -1.59997500      3.46560400
C       1.86160000     -2.91790800      3.37936300
C       2.39025500     -3.38798500      2.17954100
C       2.47671900     -2.54680800      1.07230300
Rh     -0.16069100     -0.22973800     -1.42617400
C      -0.45515000      2.61030200      3.81741600
C      -1.20891900      1.46375200      4.06007500
C      -1.63285200      0.66424100      3.00156300
C      -1.29916900      0.99989800      1.68471700
C      -0.55652200      2.16293500      1.45002400
C      -0.13835000      2.96456500      2.50763200
P      -1.72279000     -0.08567100      0.26383900
C      -3.83169400      1.81399300      0.09920600
C      -3.33065400      0.57786000     -0.31289300
C      -4.03408000     -0.16098900     -1.27643200
C      -5.21617700      0.32496700     -1.80780600
C      -5.70905700      1.56983900     -1.39922700
C      -5.01170100      2.31220300     -0.44538800
C      -2.24138500     -1.63669700      1.09546700
C      -3.55240500     -1.85172800      1.53766300
C      -3.88556600     -3.02775900      2.20418600
C      -2.91226600     -3.99495600      2.44660300
C      -1.60427100     -3.78328100      2.01798900
C      -1.27195500     -2.61401500      1.34134100
H      -0.11481800      1.35298100     -1.24030500
C      -0.32752800     -2.09772300     -1.74945800
O      -0.45938300     -3.21996600     -1.98789200
H       4.29505900      3.02638000      2.62754000
H       3.50202100      0.78067800      1.99302500
H       1.73711200      2.40479900     -1.57131900
H       2.57276000      4.66454100     -0.93859400
H       2.09585900     -1.80822600     -2.77714500
H       4.86916000      0.02479200     -0.06545700
H       6.75292100     -0.91982200     -1.34370100
H       6.32425100     -2.33021600     -3.34242500
H       3.98780900     -2.78309700     -4.05519500
H       1.12637000      0.25756900      2.44114700
H       0.99772900     -1.22093300      4.39299300
H       1.79406900     -3.57518700      4.24172700
H       2.74258600     -4.41302500      2.10220700
H       2.89259400     -2.92443100      0.14225000
H      -0.11418100      3.22419100      4.64652100
H      -1.46330200      1.18426600      5.07896000
H      -2.20366800     -0.23641200      3.20468000
H      -0.27741400      2.41855200      0.43320200
H       0.45426500      3.85234700      2.30491100
H      -3.29719100      2.39327800      0.84563600
H      -3.63807300     -1.11503600     -1.61549200
H      -5.77000200     -0.23859600     -2.55198600
H      -5.39462100      3.27613600     -0.12740100
H      -4.31586700     -1.09999000      1.35998600
H      -4.90800500     -3.18679000      2.53583100
H      -3.17458300     -4.91212900      2.96687500
H      -0.83560200     -4.52760900      2.20527400
H      -0.25113200     -2.45478400      1.01000700
C      -1.14920900      0.36561300     -3.28484700
C       0.24392900      0.22790300     -3.50506000
H      -1.78976700     -0.45537700     -3.60986300
H       0.85352500      1.12234300     -3.62407100
H       0.62932500     -0.64305600     -4.03050200
C      -1.81718000      1.71568300     -3.31477200
H      -2.18477800      1.93473000     -4.32806000
H      -1.11008900      2.50329100     -3.03220500
H      -2.67348100      1.77294800     -2.63773900
C      -6.96744700      2.05351400     -2.00964400
O      -7.60968400      1.44478300     -2.83993300
O      -7.34694300      3.25934200     -1.55035100
H      -8.17309700      3.47659000     -2.01577000
C       3.91304600      5.35695700      1.23134300
O       3.70346700      6.33971900      0.55209600
O       4.58130800      5.41611800      2.39666100
H       4.82351100      6.35005500      2.52186200
