    87
 Generated by Multiwfn
C       3.23006800      2.14923600     -3.86527800
C       3.46194900      2.65238900     -2.58365900
C       3.07276000      1.92145400     -1.45849500
C       2.42801200      0.69423800     -1.59816000
C       2.21278300      0.19276500     -2.88822200
C       2.61454700      0.91009400     -4.01042800
P       1.87292600     -0.32638500     -0.17067800
C       3.26893200     -2.67180900      0.47902100
C       3.38815700     -1.31882100      0.15729300
C       4.66047100     -0.73417600      0.13153900
C       5.78870800     -1.49271800      0.42057800
C       5.66037500     -2.84388000      0.74302400
C       4.39986600     -3.43159500      0.77384900
C       1.91463400      0.84783800      1.23918900
C       1.31764700      2.11160000      1.13989400
C       1.19835400      2.92609600      2.26099500
C       1.66143000      2.48920800      3.50001600
C       2.25349400      1.23292800      3.60902700
C       2.38329000      0.41834800      2.48675500
Rh     -0.13159600     -1.48543400     -0.43977800
C      -0.78987400      4.33158600     -1.58835200
C      -1.53209400      4.17623000     -0.41963600
C      -1.87937000      2.90417300      0.02811500
C      -1.48013900      1.76851200     -0.68519100
C      -0.75496300      1.93662300     -1.87061000
C      -0.41211500      3.20784100     -2.32048600
P      -1.79895000      0.06618600     -0.07114400
C      -4.02650200      0.41811700     -1.80484600
C      -3.40989900     -0.36204600     -0.82592100
C      -4.01351200     -1.56166500     -0.42555200
C      -5.21701200     -1.96654700     -0.98763300
C      -5.82414400     -1.18748100     -1.97349300
C      -5.22642700      0.00058400     -2.38082400
C      -2.29348000      0.37859200      1.67233400
C      -3.61354300      0.63945300      2.04038600
C      -3.93791600      0.90065300      3.37347700
C      -2.93986600      0.91234100      4.35191400
C      -1.62254900      0.66061800      3.98789800
C      -1.30243100      0.39003100      2.66094300
H      -0.14143200     -0.82258500     -1.88948400
C      -0.21270200     -2.35144000      1.25199800
O      -0.28513700     -2.90430000      2.26373300
H       1.70567600     -0.76092800     -3.00498600
H       2.28313200     -3.12502700      0.48977200
H       4.77138300      0.31802400     -0.11562900
H       6.77103200     -1.02902800      0.39519200
H       6.54369900     -3.43529900      0.96791600
H       4.29251900     -4.48366900      1.02323500
H       0.93747300      2.46171200      0.18593500
H       0.73268900      3.90244500      2.16121600
H       1.56205900      3.12445500      4.37569100
H       2.62244400      0.88405900      4.56979100
H       2.84732900     -0.55924000      2.58408200
H      -0.50556200      5.32439700     -1.92584800
H      -1.83635400      5.04811000      0.15311200
H      -2.44287900      2.79787700      0.94936800
H      -0.42881900      1.06152600     -2.42320700
H       0.17138200      3.31408800     -3.23083900
H      -3.52785700     -2.18084200      0.32535300
H      -5.69597700      0.61282500     -3.14592400
H      -4.41217000      0.64353500      1.30537800
H      -3.20071600      1.11472500      5.38518600
H      -0.83522400      0.67019100      4.73543900
H      -0.27096800      0.19118000      2.38957400
C      -1.04299500     -3.12324400     -1.55811600
C       0.36336500     -3.29893300     -1.51318900
H      -1.64037800     -3.72267500     -0.87004200
H       0.95218600     -3.10804800     -2.40906100
H       0.79459400     -4.04800600     -0.85268600
C      -1.74900100     -2.78003700     -2.84453800
H      -2.06435400     -3.69890800     -3.36075400
H      -1.08254800     -2.22621300     -3.51496400
H      -2.64384200     -2.17337400     -2.68129100
H      -6.76055300     -1.50836200     -2.42114400
H       3.53131200      2.72379700     -4.73461800
H       2.43608800      0.50516500     -5.00230000
H      -5.67856700     -2.89557000     -0.66466300
H       3.27069100      2.34826100     -0.48079500
H      -3.57164100      1.35249800     -2.12041000
C       4.11173100      3.96422400     -2.35666300
O       4.34453000      4.43877900     -1.26494000
O       4.42627500      4.59937500     -3.49940600
H       4.84443200      5.43755600     -3.23652500
C      -5.35963300      1.16322200      3.69609600
O      -6.26133800      1.17507200      2.88484300
O      -5.56740400      1.39558200      5.00467000
H      -6.52271200      1.55191600      5.10166900
