    87
 Generated by Multiwfn
C       3.06436200      1.84872300     -4.03605500
C       3.35252500      2.50653300     -2.84884300
C       2.48933000      0.64172500     -1.54572500
C       2.20957000     -0.00157600     -2.75908800
C       2.50820300      0.57391000     -3.98733100
P       1.88357300     -0.29075100     -0.06015300
C       3.09687200     -2.70351700      0.69241800
C       3.32233500     -1.38229500      0.29820400
C       4.64046800     -0.91894700      0.19844500
C       5.70454500     -1.76746600      0.48555600
C       5.47055200     -3.08373300      0.88072400
C       4.16377000     -3.54924400      0.98830200
C       1.91688800      0.89235900      1.33555100
C       1.30237200      2.14395000      1.21428100
C       1.19677000      2.98753800      2.31451900
C       1.68223200      2.58538700      3.55655500
C       2.28289800      1.33508100      3.68735900
C       2.40605700      0.49465600      2.58388600
Rh     -0.18409500     -1.37431300     -0.31771400
C      -0.58833800      4.38193400     -1.58878700
C      -1.36826900      4.29874800     -0.43803300
C      -1.79525400      3.06012200      0.03527400
C      -1.43911200      1.88099700     -0.63027500
C      -0.67392200      1.98063500     -1.79912500
C      -0.25409500      3.21785000     -2.27730700
P      -1.84187000      0.20805000      0.04975400
C      -3.86557500      0.67877100     -1.83893200
C      -3.45744300     -0.14927700     -0.78745000
C      -5.39242300     -1.55620000     -1.27558600
C      -5.77526800     -0.71687800     -2.31254900
C      -5.00377000      0.40462700     -2.59244600
C      -2.34390100      0.66515300      1.75255300
C      -3.64477100      1.07547200      2.06161300
C      -3.97039700      1.46282400      3.35782900
C      -2.99842700      1.45085700      4.35702500
C      -1.70111000      1.04862400      4.05255600
C      -1.37590800      0.65442800      2.75771600
H      -0.20155300     -0.75321200     -1.78260700
C      -0.23256200     -2.18513700      1.40990700
O      -0.23953800     -2.70211400      2.44083000
H       1.71282900     -0.96666500     -2.72666300
H       2.07881700     -3.06878700      0.75742600
H       4.83099200      0.11382100     -0.07307000
H       6.72263700     -1.39588100      0.40486200
H       6.30518700     -3.74294400      1.10397500
H       3.96970000     -4.57324700      1.29577000
H       0.90504200      2.46593800      0.25821700
H       0.71667500      3.95525400      2.19722300
H       1.58882200      3.23965400      4.41896300
H       2.66651500      1.01214000      4.65147000
H       2.88791700     -0.47259400      2.69443800
H      -0.24035800      5.34744700     -1.94545100
H      -1.63985400      5.20117000      0.10342400
H      -2.38509100      3.01311900      0.94431000
H      -0.37601300      1.07390200     -2.31518500
H       0.36005100      3.26425500     -3.17197900
H      -5.28432800      1.07713900     -3.39839100
H      -4.40739800      1.09019600      1.28744200
H      -3.25403400      1.75287300      5.36915500
H      -0.93274900      1.03877700      4.82040500
H      -0.36221100      0.34248700      2.52796800
C      -1.13460200     -3.02209600     -1.38372500
C       0.26743900     -3.22781500     -1.33527600
H      -1.74323900     -3.58782000     -0.67775000
H       0.85543600     -3.08810300     -2.24153300
H       0.68385900     -3.96435200     -0.65180200
C      -1.82761400     -2.71230100     -2.68692500
H      -2.16261300     -3.64202300     -3.17067900
H      -1.14412700     -2.20006800     -3.37307000
H      -2.70818300     -2.07710800     -2.55811000
H      -6.66518300     -0.93812100     -2.89391100
H       3.27608800      2.32615100     -4.98824200
H       2.28356600      0.03467800     -4.90321200
H      -5.97937400     -2.43738900     -1.04262800
H      -3.28043000      1.55914100     -2.07931400
C      -4.24965400     -1.28950800     -0.51418700
C      -3.90071500     -2.23129000      0.57135100
O      -3.08715600     -2.01966100      1.44428600
O      -4.58526400     -3.39005600      0.51070000
H      -4.29111300     -3.90948500      1.27910700
H      -4.98601200      1.77407700      3.58794000
H       3.79533600      3.49748600     -2.86977200
C       3.10838600      1.90436500     -1.60698700
C       3.64844900      2.65860700     -0.43884300
O       4.42819900      2.22379700      0.37890000
O       3.25321000      3.94199900     -0.44364100
H       3.68922400      4.35987600      0.32066600
