    81
 Generated by Multiwfn
C       3.38006500      2.20575600     -3.73056500
C       3.64008100      2.65854400     -2.44002200
C       3.19507100      1.93077100     -1.33886300
C       2.47108000      0.74684800     -1.51551700
C       2.22600100      0.29373200     -2.81638300
C       2.67864600      1.01559500     -3.91586000
P       1.87158700     -0.28128300     -0.11492600
C       3.17867000     -2.65403500      0.62033000
C       3.35105500     -1.33041700      0.21175700
C       4.65147100     -0.82513500      0.09981300
C       5.75345200     -1.61943600      0.39062300
C       5.55129400     -2.93412600      0.80276800
C       4.27190400     -3.46208500      0.92215900
C       1.93729400      0.86279000      1.32040300
C       1.37103600      2.14232000      1.23844400
C       1.25936100      2.93824100      2.37367100
C       1.70204700      2.46930500      3.60875500
C       2.26680200      1.19915800      3.69943500
C       2.38701900      0.40182000      2.56346100
Rh     -0.15554800     -1.39927400     -0.38841000
C      -0.68767600      4.44465800     -1.45344900
C      -1.44197100      4.28647700     -0.29271800
C      -1.81601000      3.01473200      0.13382900
C      -1.43368000      1.88235400     -0.59405000
C      -0.69388300      2.05364100     -1.76976600
C      -0.32278200      3.32458500     -2.19765900
P      -1.79438400      0.17768500     -0.00962300
C      -4.01076400      0.62613500     -1.73568600
C      -3.41125400     -0.19792200     -0.78207800
C      -4.04177200     -1.39608500     -0.42023400
C      -5.25458900     -1.75544600     -0.99391700
C      -5.84486600     -0.93153100     -1.95342300
C      -5.22003700      0.25494500     -2.32357700
C      -2.29103900      0.47716900      1.73376200
C      -3.60824900      0.76916800      2.10526200
C      -3.93183000      1.04011900      3.43122100
C      -2.92435000      1.02648700      4.39033700
C      -1.60753100      0.74112300      4.04777200
C      -1.30121600      0.46270300      2.72100600
H      -0.15601900     -0.72454500     -1.83210000
C      -0.27646300     -2.28033000      1.29326100
O      -0.38499700     -2.84440100      2.29567300
H       4.19057100      3.58254600     -2.28571200
H       1.65956700     -0.62221700     -2.95992700
H       2.17472800     -3.05823000      0.69551500
H       4.81309800      0.19871300     -0.22407300
H       6.75967200     -1.22441700      0.29923400
H       4.12926500     -4.48929500      1.24031100
H       1.00696600      2.51735300      0.28741000
H       0.81205200      3.92472700      2.28926000
H       1.60606700      3.08938400      4.49558200
H       2.61972900      0.82489400      4.65662600
H       2.82756700     -0.58782500      2.64797200
H      -0.38352100      5.43697700     -1.77501500
H      -1.73462200      5.15553300      0.29042500
H      -2.38733100      2.90530200      1.04994700
H      -0.37699500      1.18129700     -2.33171900
H       0.27404900      3.43179800     -3.09909000
H      -3.56848300     -2.05096300      0.30794600
H      -5.67460600      0.90083700     -3.06989300
H      -4.39434800      0.78777600      1.35647400
H      -4.95476900      1.26234500      3.71573700
H      -0.82825700      0.73463400      4.80183100
H      -0.27359300      0.23977700      2.45409600
C      -1.06723800     -3.02776100     -1.52372300
C       0.33892300     -3.20304800     -1.47863100
H      -1.66482100     -3.63373300     -0.84149900
H       0.92863400     -3.00010900     -2.37117000
H       0.77236900     -3.95612000     -0.82410200
C      -1.77310800     -2.67048000     -2.80626000
H      -2.09037600     -3.58327500     -3.33201700
H      -1.10637800     -2.11056300     -3.47120100
H      -2.66680200     -2.06389900     -2.63577300
H      -6.78759500     -1.21769100     -2.41132100
H       3.72467100      2.77581900     -4.58893800
H       2.47650200      0.65130300     -4.91939200
H      -5.73538400     -2.68513000     -0.70224900
H      -3.53445600      1.55884600     -2.02303600
H       3.40224200      2.29743200     -0.33812700
Br     -3.35414800      1.40377500      6.19309400
Br      7.04672800     -4.01900400      1.20239900
