    81
 Generated by Multiwfn
C       3.18924100      2.29075900     -3.72440200
C       3.25017600      2.91463900     -2.48244900
C       2.89996000      2.21937300     -1.32756700
C       2.45884800      0.89681600     -1.40431000
C       2.40347400      0.27529000     -2.65824100
C       2.77457600      0.96208000     -3.80835400
P       1.90933900     -0.11896600      0.02745000
C       3.19556300     -2.55220700      0.30579900
C       3.39840100     -1.16808900      0.37051200
C       4.70000600     -0.73383500      0.66942600
C       5.73750400     -1.63810200      0.88339700
C       5.50026500     -3.00614400      0.80574000
C       4.22126800     -3.46664400      0.51769600
C       1.87397100      0.99613900      1.47652100
C       1.25267600      2.24794400      1.40224600
C       1.07509100      3.01781500      2.54764900
C       1.50033500      2.54478200      3.78582900
C       2.10451200      1.29183800      3.87143900
C       2.28954200      0.52238800      2.72715000
Rh     -0.11766900     -1.24963400     -0.34336000
C      -0.72718200      4.54185800     -1.70393300
C      -1.35505500      4.44849300     -0.46393100
C      -1.70944500      3.20522900      0.05232200
C      -1.43236700      2.03446200     -0.66240100
C      -0.79997500      2.13958100     -1.90734800
C      -0.45654700      3.38335400     -2.42774600
P      -1.76095800      0.36089000      0.01731200
C      -3.84759500      0.45488900     -1.91048800
C      -3.32196000     -0.16531500     -0.77630600
C      -3.94592700     -1.30930200     -0.26734800
C      -5.09124600     -1.81240400     -0.87181200
C      -5.61386500     -1.19061800     -2.00561200
C      -4.98762700     -0.05995700     -2.52352900
C      -2.26523000      0.70861900      1.76433500
C      -3.47566400      1.25586400      2.22504700
C      -3.73182100      1.41021400      3.58636900
C      -2.77177200      1.05208600      4.52550700
C      -1.54819000      0.55057500      4.09876000
C      -1.31397100      0.38112500      2.74040200
H      -0.03957800     -0.53979500     -1.76269400
C      -0.25249400     -2.24465300      1.27465200
O      -0.33728000     -2.91706700      2.21022800
H       3.57653700      3.94821200     -2.40545800
H       2.04717600     -0.74895400     -2.72778500
H       2.19348600     -2.89439500      0.07289900
H       6.72882300     -1.26221400      1.11319700
H       4.01716100     -4.53155000      0.45762100
H       0.89013100      2.62161100      0.45122600
H       0.58924700      3.98643400      2.46706600
H       1.35528400      3.14407900      4.68019000
H       2.43875000      0.91100300      4.83284100
H       2.76308700     -0.45262600      2.80725700
H      -0.44309000      5.51286200     -2.10021800
H      -1.56776300      5.34656600      0.10975500
H      -2.17716600      3.15049600      1.02887100
H      -0.54351400      1.23745700     -2.45427500
H       0.05057500      3.43957800     -3.38652300
H      -3.52765200     -1.80920900      0.60361800
H      -5.38961300      0.42942000     -3.40665700
H      -4.68393300      1.82423300      3.90070600
H      -0.77226700      0.29016300      4.81146100
H      -0.35561400     -0.00426000      2.41235000
C      -1.11453500     -2.76672900     -1.55861100
C       0.26981900     -3.05979300     -1.46806400
H      -1.78923300     -3.33018000     -0.91310100
H       0.90197600     -2.89554700     -2.33981700
H       0.60296200     -3.87436500     -0.82671300
C      -1.72933200     -2.34933800     -2.86840100
H      -2.06228800     -3.23786700     -3.42503600
H      -0.99851100     -1.81659400     -3.48708000
H      -2.59915800     -1.70225400     -2.73755800
H      -6.50396700     -1.58889300     -2.48457400
H       3.46607500      2.83450300     -4.62358300
H       2.72889100      0.46281500     -4.77239700
H      -5.57329600     -2.69639800     -0.46324300
H      -3.37562500      1.34894200     -2.30739200
H       2.97154500      2.71547900     -0.36708800
H       6.31738600     -3.70161600      0.97428900
H      -2.98385200      1.17835000      5.58329300
Br      5.16977000      1.09238500      0.83639500
Br     -4.84131000      1.89635800      1.07621600
