    81
 Generated by Multiwfn
C       3.19474400      2.47715900     -3.62535600
C       3.48639500      2.86823900     -2.32403600
C       3.12595800      2.03501600     -1.26940500
C       2.45637800      0.82914200     -1.50011400
C       2.20386500      0.44658600     -2.82200600
C       2.57221100      1.25961300     -3.88700100
P       1.89638100     -0.28514400     -0.15098600
C       3.23865500     -2.66225100      0.47720900
C       3.39163800     -1.32072900      0.12208400
C       4.68339100     -0.79069200      0.02492400
C       5.79773200     -1.58011200      0.27895400
C       5.61644600     -2.91345400      0.63864000
C       4.34518000     -3.46484300      0.74163800
C       1.93856800      0.79372200      1.33297400
C       1.35344700      2.06622400      1.30790300
C       1.17379900      2.79469200      2.47732800
C       1.57408900      2.24271500      3.68979800
C       2.17678600      0.99012600      3.74163900
C       2.35906100      0.27382800      2.56232600
Rh     -0.13140500     -1.38889300     -0.44698600
C      -0.51209500      4.40230600     -1.51888700
C      -1.22072100      4.29275200     -0.32637800
C      -1.65496300      3.03873200      0.09435900
C      -1.37693600      1.89321000     -0.65936200
C      -0.69064400      2.03975800     -1.87052700
C      -0.25832400      3.28542300     -2.30863200
P      -1.76244800      0.19729900     -0.06188700
C      -3.95427200      0.64468200     -1.82345300
C      -3.37424100     -0.16799900     -0.84914200
C      -4.02102700     -1.35508700     -0.48133800
C      -5.22559800     -1.72088400     -1.06489500
C      -5.78100100     -0.89707800     -2.04241200
C      -5.15565800      0.28118100     -2.42934400
C      -2.27870900      0.51714900      1.66997800
C      -3.57759800      0.92014900      2.00293200
C      -3.91307200      1.22376200      3.31811100
C      -2.93698900      1.12936200      4.30601800
C      -1.64164200      0.72656800      4.00247000
C      -1.32333700      0.41789700      2.68490000
H      -0.11591300     -0.70501200     -1.88499000
C      -0.25131200     -2.30247300      1.21971200
O      -0.35029800     -2.89170100      2.20747600
H       3.97970500      3.81524400     -2.13421900
H       1.68706500     -0.48884600     -3.01774600
H       2.24093600     -3.08411100      0.53960300
H       4.82947500      0.24785400     -0.25729000
H       6.79765800     -1.16710500      0.19960100
H       4.21949700     -4.50609200      1.01842700
H       1.01276100      2.49430300      0.37128600
H       0.70567200      3.77269100      2.44614000
H       2.81988700     -0.70889000      2.61021000
H      -1.42019100      5.17404900      0.27408300
H      -2.18688700      2.95817100      1.03650300
H      -0.45761800      1.16113800     -2.46277100
H       0.29591800      3.38140300     -3.23591600
H      -3.56917000     -2.00661000      0.26291700
H      -5.60135200      0.91195700     -3.19097100
H      -4.33783300      1.00406400      1.23186400
H      -4.92051300      1.53471000      3.57312700
H      -0.88951200      0.66016300      4.78079300
H      -0.31303000      0.10413000      2.44525700
C      -1.05946700     -2.99597200     -1.60661900
C       0.34302700     -3.18958000     -1.55353700
H      -1.66933800     -3.59898000     -0.93285600
H       0.94246700     -2.98311100     -2.43856300
H       0.76119200     -3.95486900     -0.90336200
C      -1.75175700     -2.61624800     -2.88986200
H      -2.07988400     -3.51991400     -3.42380800
H      -1.07302200     -2.06194600     -3.54717800
H      -2.63769500     -1.99822100     -2.72103600
H       2.36371700      0.96017400     -4.90860900
H      -5.72464100     -2.63947300     -0.77582300
H      -3.47249500      1.57116900     -2.12102200
H       3.35415200      2.35098300     -0.25635100
Br      7.12776100     -3.99080800      0.98851600
Br      3.63329200      3.62347900     -5.06000700
Br      0.13700800      6.08777500     -2.06953700
Br     -7.41094800     -1.39679700     -2.85699000
Br     -3.37912600      1.55788200      6.09164000
H       2.49368800      0.57412300      4.69205800
Br      1.25834600      3.18958300      5.29271900
