    99
 Generated by Multiwfn
C       3.11286200      2.73317500     -3.36968200
C       3.33271500      3.11617100     -2.05129900
C       3.03808200      2.23301100     -1.01759700
C       2.48438700      0.97853700     -1.28833100
C       2.31405600      0.58958900     -2.62264900
C       2.63283900      1.45588200     -3.65865700
P       1.94757200     -0.19624900      0.02008600
C       3.35090900     -2.51255100      0.71644000
C       3.47381900     -1.18856000      0.28489100
C       4.74911100     -0.64288100      0.11090000
C       5.88231600     -1.40629200      0.36599600
C       5.74633200     -2.72028200      0.80680400
C       4.48079600     -3.27544500      0.98488800
C       1.92039100      0.82878900      1.54257300
C       1.27860200      2.07267900      1.54465100
C       1.07138500      2.76521700      2.73121700
C       1.49130100      2.21275800      3.93709200
C       2.13775600      0.97680400      3.95061700
C       2.35593600      0.29283600      2.76140700
Rh     -0.03321300     -1.35110700     -0.35622200
C      -0.49343900      4.35361500     -1.75661600
C      -1.13627900      4.28074700     -0.52444300
C      -1.56747000      3.04925700     -0.03762500
C      -1.33826500      1.87778000     -0.76616100
C      -0.71501000      1.97367100     -2.01718800
C      -0.30516700      3.20070600     -2.51710500
P      -1.71270200      0.20281400     -0.10280000
C      -3.82720100      0.49438900     -1.99660200
C      -3.27468100     -0.24558300     -0.95094100
C      -3.89922900     -1.43379400     -0.54760800
C      -5.05260900     -1.87300700     -1.17783500
C      -5.58816100     -1.13351900     -2.23434900
C      -4.97762100      0.04719700     -2.64248100
C      -2.33249400      0.58406900      1.58426300
C      -3.63634300      1.04654000      1.80278100
C      -4.05581800      1.39390000      3.08106700
C      -3.17101400      1.28661000      4.15280200
C      -1.87506800      0.82122200      3.95018000
C      -1.46229100      0.46857400      2.67090100
H       0.04494300     -0.69421900     -1.80395000
C      -0.21635000     -2.24969200      1.31527700
O      -0.34729500     -2.83585400      2.30061300
H       3.72038300      4.10422200     -1.82896000
H       3.22047100      2.54386700      0.00553900
H       1.89785600     -0.38884900     -2.84497700
H       2.48795200      1.14989800     -4.69009900
H       2.36144200     -2.94199400      0.83516500
H       4.86334900      0.38221400     -0.22840600
H       6.87009700     -0.97918000      0.22955500
H       4.37842300     -4.29983400      1.33000900
H       0.91722100      2.50152300      0.61714000
H       0.56533600      3.72456800      2.71746500
H       2.47140700      0.54771500      4.89099000
H       2.85942100     -0.66907200      2.78600600
H      -1.29797700      5.18168000      0.05832600
H      -2.05774700      3.00445000      0.92919800
H      -0.52353200      1.07217000     -2.58973000
H       0.19017000      3.26031200     -3.48005700
H      -3.36420100      1.42294700     -2.31544500
H      -3.46751000     -2.02199200      0.25841400
H      -5.53553600     -2.79045300     -0.85667800
H      -5.40253300      0.62446600     -3.45720700
H      -4.32597400      1.14476200      0.96979100
H      -5.06430000      1.76034600      3.24303000
H      -1.18221800      0.75476400      4.78154800
H      -0.44889400      0.11444000      2.51774100
C      -0.85668100     -3.00497100     -1.53539900
C       0.54442000     -3.15887800     -1.40498900
H      -1.48697300     -3.60815900     -0.88087700
H       1.18548300     -2.94773900     -2.25913900
H       0.94909300     -3.89670700     -0.71605300
C      -1.49221800     -2.66141800     -2.85750700
H      -1.77316300     -3.58109500     -3.39058100
H      -0.79389400     -2.10290900     -3.49024900
H      -2.39916600     -2.06154900     -2.74263000
C      -6.79036200     -1.65202000     -2.96471200
F      -7.63390500     -2.29416000     -2.14029400
F      -6.44222500     -2.52756700     -3.92498700
F      -7.47880100     -0.66723000     -3.56269300
C      -3.62539700      1.62952800      5.54096300
F      -4.60719400      2.54539700      5.53213900
F      -2.62106200      2.11772700      6.28444100
F      -4.10204000      0.54879600      6.18350600
C       1.23914200      2.90959700      5.23946600
F       0.63370500      4.09319600      5.07640100
F       2.38109200      3.12666100      5.91297300
F       0.45542700      2.16645500      6.04715400
C       6.95412400     -3.57355000      1.05972000
F       8.08277600     -2.85179100      1.11477300
F       7.11518300     -4.49369000      0.09282100
F       6.84525700     -4.24490000      2.21853700
C       3.29604700      3.72255900     -4.48011600
F       2.12813900      4.32961800     -4.77951700
F       3.72639100      3.13634200     -5.60783000
F       4.16845300      4.68775000     -4.16216100
C       0.06282000      5.65291000     -2.25829300
F       1.39312800      5.72391100     -2.05292000
F      -0.48542800      6.71027900     -1.64112500
F      -0.13461500      5.80206900     -3.57583700
