   117
 Generated by Multiwfn
C       3.46042700      2.45880500     -3.67429300
C       3.69025100      2.89401800     -2.37314900
C       3.20090400      2.17807300     -1.28512300
C       2.46508000      1.00789200     -1.48888400
C       2.24339000      0.56927200     -2.79359800
C       2.73513400      1.29177000     -3.87504200
P       1.81428000     -0.02941800     -0.11851900
C       3.08217800     -2.39491200      0.62758000
C       3.28620600     -1.06950800      0.25913000
C       4.59357200     -0.57679000      0.19730400
C       5.66613400     -1.40589300      0.50212700
C       4.16117800     -3.22077600      0.93469000
C       1.83890700      1.13895900      1.29672800
C       1.16925200      2.36294800      1.19180700
C       1.07394700      3.20512800      2.29374200
C       1.63010700      2.84282300      3.51649700
C       2.28755300      1.62360000      3.62223400
C       2.39722900      0.77633700      2.52372500
Rh     -0.16696500     -1.14825400     -0.52214600
C      -1.61230100      4.63807500     -1.66726100
C      -2.33270500      4.35649500     -0.51186300
C      -2.43631500      3.05299800     -0.04089300
C      -1.80370800      2.00861200     -0.71974700
C      -1.07120800      2.29231900     -1.87532000
C      -0.98676900      3.59881200     -2.34737200
P      -1.92357900      0.26688500     -0.14718700
C      -4.12277900      0.41968100     -1.95949600
C      -3.45711900     -0.30587900     -0.97431800
C      -3.90165600     -1.59207600     -0.65724000
C      -4.98692500     -2.14408300     -1.32317600
C      -5.64541700     -1.42825600     -2.31978500
C      -5.20856800     -0.14604200     -2.62784900
C      -2.51295900      0.46644400      1.58245900
C      -3.86643800      0.61844000      1.88980900
C      -4.27670500      0.74067400      3.21447300
C      -3.34825600      0.70632900      4.24744500
C      -1.99856500      0.55803700      3.94234400
C      -1.57866400      0.44509100      2.62107900
H      -0.12493900     -0.38568600     -1.91790900
C      -0.36002500     -2.15747500      1.08961000
O      -0.52180200     -2.79053100      2.03845700
H       3.39137900      2.54421400     -0.28136100
H       1.65850500     -0.32957500     -2.96173800
H       2.07217300     -2.78603300      0.65951800
H       4.78410800      0.45266400     -0.08796000
H       0.72373500      2.66422500      0.24873400
H       2.90857700     -0.17400300      2.63563100
H      -3.00175800      2.86294100      0.86356200
H      -0.56620400      1.48933600     -2.40260900
H      -3.80168100      1.42400900     -2.21618200
H      -3.38144200     -2.17338300      0.09954800
H      -4.61128700      0.62645400      1.10033700
H      -0.52449500      0.31594300      2.39754200
C      -0.93146000     -2.73397500     -1.84758100
C       0.46275700     -2.88356900     -1.68421900
H      -1.57818000     -3.38255900     -1.25612000
H       1.12602000     -2.61655000     -2.50551300
H       0.85616900     -3.65837200     -1.03040400
C      -1.52526500     -2.29737500     -3.16152800
H      -1.79742800     -3.17932800     -3.75782300
H      -0.80702500     -1.70527600     -3.73898100
H      -2.43145400     -1.69850300     -3.03621900
C       5.45867300     -2.73387900      0.87339200
H       6.29971000     -3.37643600      1.10896200
H       3.82935900      3.03038000     -4.51813600
H      -1.53774300      5.65721700     -2.03323100
H       1.53928700      3.49600300      4.37657600
H      -3.67363500      0.77340200      5.27960200
H      -6.48701900     -1.86430700     -2.84511300
C      -5.73557300      0.94951500      3.50783300
F      -6.50711700      0.23184600      2.67735500
F      -6.07960800      2.23800900      3.34976300
F      -6.04776700      0.60239500      4.76287100
C      -0.99028200      0.54236700      5.05625700
F      -0.57035600      1.78458500      5.35106000
F       0.09439400     -0.17908000      4.73085200
F      -1.50265900      0.02378800      6.17919300
C       2.92343400      1.23173800      4.92644300
F       2.99504700     -0.09971800      5.06031200
F       2.24302200      1.71533100      5.97380900
F       4.17717300      1.70794300      5.01339100
C       0.29520700      4.48352900      2.17783800
F      -1.01410800      4.27018100      2.41496600
F       0.39571900      5.00962500      0.94899900
F       0.70865900      5.40413100      3.05598800
C       2.45342400      0.77940200     -5.25806900
F       3.17761400     -0.31929100     -5.52709800
F       2.73198200      1.68867600     -6.19919800
F       1.16089600      0.43458400     -5.38919700
C       4.40216400      4.19549700     -2.13843900
F       3.53808000      5.22256400     -2.10842500
F       5.29353900      4.45342100     -3.10537800
F       5.05581600      4.19413300     -0.96650300
C      -5.38418100     -3.55213600     -0.98577200
F      -4.43037500     -4.42099400     -1.36781300
F      -6.52412000     -3.91542300     -1.58492300
F      -5.54525600     -3.70997000      0.33682600
C      -5.86431900      0.63221800     -3.73263600
F      -7.10012300      0.18617800     -3.99334200
F      -5.15789800      0.54497500     -4.87181700
F      -5.95395200      1.93569800     -3.42556700
C      -2.98659200      5.49312100      0.22320900
F      -2.08097300      6.39676600      0.62600300
F      -3.65653200      5.07549400      1.30374100
F      -3.85529400      6.13925000     -0.57186200
C      -0.16641500      3.91422300     -3.56576200
F       0.02134400      2.83338900     -4.33638600
F       1.04709000      4.37917000     -3.22287200
F      -0.74980300      4.85765500     -4.31770000
C       7.06925400     -0.88413900      0.37208900
F       7.56498200     -1.12332400     -0.85263100
F       7.89480500     -1.46510800      1.25411600
F       7.12315000      0.44102100      0.56996800
C       3.87369000     -4.63460600      1.34995500
F       2.99900800     -5.21353400      0.50899000
F       3.32321400     -4.67816100      2.57366100
F       4.97860100     -5.38916500      1.37500000
