    93
 Generated by Multiwfn
P       1.79005700     -0.49295000     -1.11045700
C       2.41827900      0.85881200     -0.03658000
C       2.26532000      2.18750200     -0.45860500
C       2.70083700      3.24325200      0.33543900
C       3.31524300      2.98922900      1.56202700
C       3.46721100      1.67484100      1.99236800
C       3.00677400      0.61911400      1.20848700
Rh     -0.48679000     -0.98469400     -1.05696500
P      -1.49825900      0.57012000      0.35945700
C      -3.88755900      0.93966100      1.87694300
C      -3.29241600      0.37887900      0.73744500
C      -4.10373600     -0.29814800     -0.17501800
C      -5.48027800     -0.38739600      0.01903800
C      -6.06332700      0.19116000      1.14242500
C      -5.26159900      0.84749400      2.07523100
H      -0.53906700      0.17963500     -2.15222400
C      -0.46904100     -2.36077100      0.25208400
O      -0.45978500     -3.21048600      1.03586800
H       1.81861000      2.39306300     -1.42844700
H       2.57301000      4.26552500     -0.01052300
H       3.67104400      3.81170700      2.17627100
H       3.93533500      1.46460700      2.95007800
H       3.11117200     -0.39607800      1.57937600
H      -3.27192000      1.43346600      2.62274600
H      -3.63523300     -0.76432300     -1.03230400
H      -6.09407000     -0.91658400     -0.70506300
H      -5.70727600      1.28659900      2.96380600
C      -1.96104700     -1.91793100     -2.40203300
C      -0.67017000     -2.44093100     -2.65737000
H      -2.63530900     -2.53975100     -1.81111700
H      -0.15595200     -2.16555700     -3.57539300
H      -0.40847200     -3.43229300     -2.29525100
C      -2.64603000     -1.05401200     -3.43290500
H      -3.22716500     -1.67426900     -4.13139400
H      -1.90782500     -0.49095200     -4.01425800
H      -3.33723900     -0.32511900     -2.99587400
H      -7.13627100      0.12111300      1.29949600
C       2.88260400     -1.93312900     -0.65696300
C       4.39679200     -1.72379700     -0.65689600
H       2.56727600     -2.16736100      0.37119600
C       2.53675600     -3.14408700     -1.54641200
H       4.74327100     -1.67587800     -1.69614700
H       4.68252600     -0.77653800     -0.18881200
C       5.07769400     -2.89249400      0.07393800
C       3.64921800     -4.20554500     -1.52460300
H       2.36385000     -2.81485700     -2.57903600
H       1.59464000     -3.57738200     -1.20007600
C       4.35017400     -4.22624200     -0.17090100
H       6.11939600     -2.96388300     -0.26252900
H       5.11257900     -2.68223400      1.15060800
H       3.22543400     -5.18766500     -1.76346900
H       4.38911000     -3.99055900     -2.30710000
H       3.59985300     -4.39677100      0.61312300
H       5.05556800     -5.06245000     -0.10616800
C      -1.40099200      2.34143900     -0.22352500
C      -1.88992200      3.41399900      0.76092500
H      -0.32543200      2.48378700     -0.38561500
C      -2.11809100      2.48157200     -1.59074500
H      -2.84171800      3.11465400      1.21458600
H      -1.17924500      3.53359300      1.58314800
C      -2.09467300      4.73678200      0.02500000
C      -3.45932000      3.19480300     -1.45707400
H      -2.24375000      1.50160200     -2.06131100
H      -1.47394200      3.05424800     -2.27134600
C      -3.27022700      4.63498000     -0.96144600
H      -2.26335700      5.54944100      0.74110800
H      -1.16947300      4.98771600     -0.51218100
H      -3.98389200      3.18819700     -2.41972900
H      -4.09387600      2.63487700     -0.75897900
H      -3.09530700      5.30449400     -1.81287200
H      -4.19386500      4.97951200     -0.48021800
C       0.15979600      1.46748300      2.49832300
H       0.54364000      2.23089500      1.82921300
C       0.67055800      1.38718200      3.79281500
H       1.42022700      2.10555300      4.11211300
C       0.23667500      0.39263600      4.66215800
H       0.63695900      0.33312000      5.67060200
C      -0.71103500     -0.53317600      4.22692800
H      -1.05121900     -1.32260200      4.89169700
C      -1.23127400     -0.44498500      2.94169600
H      -1.97979700     -1.16361700      2.61848100
C      -0.81385500      0.56637500      2.06294800
C       1.71778100     -0.03219700     -3.89256200
H       0.69650700     -0.38691000     -3.81853400
C       2.24153400      0.35200800     -5.12566700
H       1.62906300      0.26927500     -6.01954200
C       3.53767200      0.85005200     -5.20842200
H       3.94759000      1.15358700     -6.16791500
C       4.30315500      0.97359600     -4.04982700
H       5.31023800      1.37864200     -4.10147800
C       3.77896400      0.58795600     -2.82090000
H       4.37745800      0.71864500     -1.92523400
C       2.48071900      0.06489200     -2.72702700
