   105
 Generated by Multiwfn
P       1.64460500     -0.49620400     -0.91782600
C       2.37694100      0.62113800      0.34601900
C       2.63931300      1.96729300      0.05994700
C       3.05837700      2.84747200      1.05319200
C       3.22914400      2.40044500      2.36059400
C       2.98567200      1.06201600      2.66035300
C       2.56399400      0.18483600      1.66540700
Rh     -0.69319900     -0.60356000     -0.98995200
P      -1.69163400      1.12499500      0.21136100
C      -4.38777100      1.89830700      0.79462300
C      -3.45908300      0.85746300      0.65966800
C      -3.88891900     -0.44796600      0.92732500
C      -5.19128400     -0.70522600      1.34575800
C      -6.10052100      0.34059200      1.48157700
C      -5.69584000      1.64225000      1.19691100
H      -0.60868400      0.54258500     -2.10241600
C      -0.80872600     -2.00267300      0.27808600
O      -0.87765900     -2.90125200      1.00770400
H       2.50579100      2.34357100     -0.94825100
H       3.25131700      3.88693200      0.80110500
H       3.55396900      3.08645900      3.13776300
H       3.12244900      0.69540400      3.67410500
H       2.37421600     -0.85130900      1.92950500
H      -4.09962200      2.92370400      0.58625500
H      -3.19382600     -1.27042400      0.79241100
H      -5.49743100     -1.72679200      1.55472600
H      -6.39959300      2.46511000      1.29058400
C      -2.31846500     -1.42796600     -2.19690300
C      -1.07395900     -1.87630400     -2.70645400
H      -2.87541200     -2.13328200     -1.57782600
H      -0.69590100     -1.44754200     -3.63357900
H      -0.74553300     -2.89604700     -2.52099200
C      -3.20254600     -0.46761700     -2.94376000
H      -3.88756400     -1.01071600     -3.61264200
H      -2.60766500      0.22117200     -3.55203600
H      -3.81483100      0.12794900     -2.25905800
H      -7.12054900      0.14210900      1.79896300
C       2.38849700     -2.14431000     -0.44853100
C       3.90696200     -2.22094300     -0.28024800
H       1.94047700     -2.34542200      0.53529500
C       1.91023900     -3.26732400     -1.39519300
H       4.37810500     -2.22041500     -1.27090900
H       4.29857400     -1.35071200      0.25632200
C       4.28241000     -3.50896500      0.46859000
C       2.84202800     -4.48748800     -1.34671900
H       1.83158000     -2.90672600     -2.42808300
H       0.89901500     -3.56646500     -1.10613000
C       3.38298500     -4.69123200      0.06415700
H       5.33377000     -3.74621100      0.26419600
H       4.20726300     -3.33785100      1.54998300
H       2.30115700     -5.37550200     -1.69351900
H       3.68375000     -4.34897000     -2.03876800
H       2.53337900     -4.77401900      0.75569600
H       3.93450700     -5.63496200      0.14166700
C       1.75594100      0.87361500     -3.42848800
C       3.99412400      0.38441600     -2.42340400
H       0.89459000      0.33891800     -3.83987300
H       1.33530700      1.70655500     -2.85347200
C       2.64510200      1.42304500     -4.55748500
C       4.67528300      0.15126100     -3.78060300
H       4.55134700     -0.11301600     -1.62764500
H       4.01726600      1.45203000     -2.18026700
C       3.71350800      0.40879700     -4.95493600
H       2.02339500      1.69566100     -5.41815700
H       3.13858000      2.34886100     -4.23161600
H       5.55118000      0.80726500     -3.85855700
H       5.05250300     -0.87846100     -3.83047400
H       4.26917800      0.75095700     -5.83537400
H       3.21951700     -0.52682600     -5.25080000
C      -1.72337600      2.80320000     -0.58149200
C      -2.50802700      2.84512700     -1.89060500
H      -2.21382200      3.48463800      0.12551400
C      -0.29076000      3.30774300     -0.81558100
H      -1.95159600      2.27182500     -2.64031500
H      -3.48154900      2.35507700     -1.79113900
C      -2.69793600      4.29881600     -2.35044100
C      -0.21842100      4.34990000     -1.94225500
H       0.34296400      2.45231900     -1.06667500
H       0.10608500      3.73102100      0.11481400
C      -1.49342300      5.18427300     -1.98739500
H      -2.85685400      4.31011900     -3.43595900
H      -3.60902200      4.71432800     -1.90099100
H       0.66508100      4.98473400     -1.80574500
H      -0.08902400      3.84382900     -2.90909600
H      -1.64693300      5.64412800     -1.00128600
H      -1.39858800      6.01138100     -2.70024500
C      -0.92325400      1.50732800      1.87474700
C      -0.76747800      0.21963500      2.69608600
H       0.08824300      1.84239000      1.60650400
C      -1.60641800      2.61461300      2.71067000
H      -1.69484100     -0.36979600      2.67650800
H       0.00789000     -0.40091000      2.24158200
C      -0.42041000      0.55501900      4.14269700
C      -2.45963800      2.03355900      3.83534600
H      -2.21562800      3.27869400      2.08849800
H      -0.82668600      3.25309800      3.14863500
C      -1.59546800      1.26002000      4.84038600
H      -0.13834600     -0.35279900      4.68920400
H       0.46577800      1.20384800      4.14230100
H      -3.01200500      2.83314500      4.34314700
H      -3.21514400      1.36978000      3.39830000
H      -1.21193100      1.94256600      5.60940400
H      -2.21860900      0.52360000      5.36259500
C       2.53589600     -0.08400600     -2.50707600
H       2.54491200     -1.06719600     -3.00058200
