    81
 Generated by Multiwfn
C      -1.02003300     -3.17119300      0.74279000
C       0.38842100     -3.34278700      0.76036700
H      -1.52766600     -3.31131200      1.69949000
H       0.87668200     -3.63555600      1.68747500
H       0.90233000     -3.67175400     -0.14091200
C      -1.86986300     -3.52359700     -0.45005500
H      -2.76544800     -2.89620800     -0.51637400
H      -1.31084700     -3.38989700     -1.38184600
C       3.70156600      3.39677300      2.43572200
C       4.00855800      3.26100300      1.08296900
C       3.47765900      2.20696500      0.34663400
C       2.61400500      1.28364100      0.94715700
C       2.32679200      1.41969900      2.30684200
C       2.86697300      2.46659300      3.04943600
P       1.91999500     -0.15843600      0.03089800
C       3.57338600     -2.21276900      0.92247000
C       3.43848000     -1.19878800     -0.02893400
C       4.49246000     -0.95520700     -0.91672500
C       5.65057700     -1.72430600     -0.86145400
C       5.77614300     -2.73522000      0.08994700
C       4.73751000     -2.97437800      0.98571000
C       1.78344600      0.45741100     -1.69177100
C       1.38542600      1.76655500     -1.97679400
C       1.12855500      2.15595900     -3.29034700
C       1.26762300      1.24730400     -4.33439800
C       1.66091900     -0.06257900     -4.05872100
C       1.90923800     -0.45566100     -2.74830200
Rh     -0.04071400     -1.22550000      0.69417300
C      -0.46178100      4.68011900     -0.21009700
C      -1.27358200      4.13749700     -1.20349100
C      -1.69826400      2.81246200     -1.11942500
C      -1.31100700      2.01757600     -0.03769000
C      -0.51395600      2.57759700      0.96621400
C      -0.08801900      3.89806900      0.88282800
P      -1.75022900      0.24269400      0.13637900
C      -3.92677000      1.50103600      1.45734600
C      -3.15590200      0.34177600      1.31352300
C      -3.48847700     -0.79225900      2.06040000
C      -4.57384500     -0.77263100      2.93175300
C      -5.33388800      0.38598300      3.07204600
C      -5.00747900      1.52230200      2.33442600
C      -2.58845900     -0.10367600     -1.45782700
C      -3.97269400     -0.25305700     -1.57029300
C      -4.55176800     -0.52714700     -2.80908700
C      -3.75737700     -0.63554700     -3.94624600
C      -2.37566400     -0.47497800     -3.84149800
C      -1.79402200     -0.22260300     -2.60531100
H      -0.02776100     -1.50467300     -0.87350900
C      -0.09317400     -1.02775100      2.58499500
O      -0.16704800     -0.97370100      3.73814800
H       4.11723700      4.22056600      3.00945700
H       4.66754400      3.97671500      0.59887400
H       3.72993300      2.11121300     -0.70519600
H       1.66847500      0.70361600      2.78799500
H       2.62919900      2.55634500      4.10586000
H       2.75132500     -2.40095000      1.60664100
H       4.40681000     -0.16795500     -1.66040700
H       6.45900500     -1.53129800     -1.56163500
H       6.68169100     -3.33435500      0.13135600
H       4.82871600     -3.75981500      1.73111800
H       1.26006200      2.48699400     -1.17485000
H       0.80831300      3.17501500     -3.48794400
H       1.06629300      1.55340500     -5.35726700
H       1.76827900     -0.78271800     -4.86538100
H       2.19404600     -1.48370800     -2.54037300
H      -0.11999200      5.70869800     -0.28681000
H      -1.57309100      4.74424200     -2.05406200
H      -2.31610000      2.39261400     -1.90721900
H      -0.20341700      1.96168700      1.80426500
H       0.55455800      4.30480400      1.65877600
H      -3.67914800      2.38943200      0.88334200
H      -2.88336600     -1.68742100      1.95492400
H      -4.81972300     -1.66071400      3.50753500
H      -6.17620900      0.40578000      3.75816900
H      -5.59538700      2.42979000      2.44254600
H      -4.60304300     -0.15946300     -0.69120500
H      -5.62876500     -0.65276000     -2.88157500
H      -4.21128800     -0.84618200     -4.91082600
H      -1.74404900     -0.55403000     -4.72232900
H      -0.71632300     -0.11636700     -2.52914500
H      -2.20138200     -4.57106800     -0.39260500
