    99
 Generated by Multiwfn
C       3.63729200     -2.23246600     -3.72493800
C       3.42490700     -2.87893900     -2.50727400
C       2.90884300     -2.19814900     -1.40575400
C       2.57433600     -0.84614900     -1.50165400
C       2.79243100     -0.19104500     -2.72169100
C       3.32196200     -0.87047000     -3.80876500
P       1.86432600      0.13650200     -0.12375000
C       0.78599500     -2.13226100      1.10759000
C       1.72097200     -1.09603500      1.22874500
C       2.46789400     -1.01658500      2.40571500
C       2.27570100     -1.94018100      3.43113900
C       1.35275500     -2.97856700      3.30732000
C       0.61625200     -3.06252100      2.12144600
C       3.31343300      1.11738500      0.42720800
C       4.62324900      0.79312600      0.06303500
C       5.69539700      1.54211200      0.53891000
C       5.49768900      2.62573900      1.39791900
C       4.18608300      2.93618600      1.77182200
C       3.11003400      2.20198900      1.28824900
C      -3.10558800     -3.28621800     -2.82838700
C      -4.08189200     -2.58271900     -2.11646300
C      -3.74072000     -1.52788200     -1.27673500
C      -2.40361300     -1.14462900     -1.11929800
C      -1.42707300     -1.83807200     -1.84157900
C      -1.77266400     -2.89610500     -2.67453100
P      -1.89705500      0.21567500      0.00815100
C      -2.70797000     -1.71774300      1.92746700
C      -1.94147500     -0.57925200      1.66297700
C      -1.19381500     -0.02486400      2.70706600
C      -1.21864800     -0.58780600      3.97577500
C      -1.98474400     -1.72532900      4.24632000
C      -2.72417700     -2.28090100      3.19996100
C      -3.41725900      1.24003300      0.02864400
C      -4.18350500      1.45352600      1.17375800
C      -5.28458900      2.30954200      1.13734900
C      -5.65443100      2.96364700     -0.03677300
C      -4.88660900      2.73476100     -1.18713800
C      -3.78322600      1.89646500     -1.15495200
C      -0.19701300      1.06045400     -2.48919100
O      -0.32966200      0.92173600     -3.62866200
H       3.67276000     -3.93398400     -2.41268900
H       2.76958100     -2.72686700     -0.46786400
H       2.54816600      0.86465300     -2.81269100
H       3.48691100     -0.33910700     -4.74355400
H       0.17394400     -2.20928100      0.21442300
H       3.20166600     -0.22658100      2.53159300
H       2.85961000     -1.84997000      4.34477300
H      -0.12567100     -3.84842200      2.00452000
H       4.80974400     -0.05258600     -0.59244100
H       6.70701400      1.27536100      0.24054700
H       4.00537000      3.77149100      2.44509600
H       2.09542100      2.46163400      1.57849900
H      -5.12730000     -2.86399300     -2.22383900
H      -4.52140800     -0.99325700     -0.74201900
H      -0.38582800     -1.53521000     -1.76431500
H      -0.99250100     -3.41855000     -3.22378900
H      -3.28655500     -2.18174500      1.13442700
H      -0.56808800      0.83952400      2.50657200
H      -0.61546500     -0.14798700      4.76676200
H      -3.32129300     -3.17214100      3.38156700
H      -3.92224600      0.95372400      2.10192800
H      -5.86682400      2.46760400      2.04258400
H      -5.15608300      3.23089500     -2.11722900
H      -3.18932100      1.74979000     -2.05429000
C       1.15485900     -3.98625100      4.40289600
H       0.09442800     -4.23072800      4.52601400
H       1.68063500     -4.92331800      4.17926300
H       1.53432900     -3.61686400      5.36080400
C       6.65460900      3.45097300      1.88456100
H       6.47954600      3.82710600      2.89781400
H       7.58449300      2.87365200      1.88873900
H       6.81328600      4.32297200      1.23723600
C       4.17126000     -2.97109200     -4.91883900
H       4.59061400     -3.94086800     -4.63447900
H       3.37799400     -3.15497000     -5.65428700
H       4.95349600     -2.39620000     -5.42657400
C      -6.83012100      3.89794300     -0.07554400
H      -7.51416400      3.64442900     -0.89359100
H      -7.39540700      3.86791200      0.86069600
H      -6.50593900      4.93343600     -0.23675700
C      -3.48166700     -4.40180500     -3.76110200
H      -4.40641500     -4.89429500     -3.44429500
H      -3.64485100     -4.02227200     -4.77786500
H      -2.69200900     -5.15768200     -3.81905000
C      -2.01796500     -2.31783900      5.62620200
H      -2.37873200     -3.35105800      5.61142700
H      -1.02430800     -2.30876000      6.08659300
H      -2.68489900     -1.74554700      6.28355500
Rh     -0.01395700      1.39415600     -0.63263000
H       0.12643900      1.77220700      0.92141000
C      -0.68583300      3.46361900     -0.80388400
C       0.71917500      3.40048800     -0.98453300
H      -1.30136300      3.55748800     -1.70003100
H       1.37771200      3.74120300     -0.18836200
H       1.14624400      3.48926900     -1.98160100
C      -1.30682300      4.07789600      0.42339000
H      -1.51912600      5.14433800      0.25495700
H      -0.63086200      3.99673100      1.28170000
H      -2.25097100      3.59287900      0.69022400
