    99
 Generated by Multiwfn
C      -1.00989600     -3.16887300      0.75272100
C       0.39960800     -3.33806400      0.76752700
H      -1.51627200     -3.31141000      1.70977600
H       0.89081500     -3.63138100      1.69310500
H       0.91247300     -3.66530700     -0.13511500
C      -1.86114200     -3.52209100     -0.43899300
H      -2.75676700     -2.89458200     -0.50383500
H      -1.30346400     -3.38715000     -1.37147500
C       3.71686800      3.38874000      2.44239100
C       4.04750600      3.25892300      1.08885700
C       3.49939200      2.19691500      0.37017500
C       2.62301000      1.28339400      0.96600300
C       2.32518900      1.42233800      2.32135700
C       2.87278900      2.47084900      3.05677100
P       1.92032300     -0.14540300      0.03669600
C       3.57339900     -2.20058400      0.90576300
C       3.43380800     -1.19179300     -0.04616400
C       4.47489400     -0.95883300     -0.95281100
C       5.62169700     -1.74191200     -0.90256200
C       5.74623100     -2.74927700      0.05321000
C       4.72600500     -2.98949100      0.97406600
C       1.77547600      0.49023700     -1.67853100
C       1.40993900      1.81015400     -1.95164000
C       1.15131800      2.20077400     -3.26408400
C       1.25260500      1.28776400     -4.30689500
C       1.61327100     -0.04135400     -4.05617600
C       1.86317000     -0.42214600     -2.73800100
Rh     -0.03445600     -1.22316400      0.70398600
C      -0.44388700      4.66636300     -0.23699500
C      -1.25036200      4.13012100     -1.24279100
C      -1.67279900      2.80148600     -1.12439000
C      -1.30151000      2.01919900     -0.03121900
C      -0.51219100      2.58427000      0.97604500
C      -0.08403400      3.90116700      0.87218600
P      -1.74372000      0.24538800      0.14633200
C      -3.93529000      1.49997600      1.43403900
C      -3.15122900      0.34695100      1.32026700
C      -3.47727100     -0.77736400      2.08141400
C      -4.57565300     -0.74401600      2.93644500
C      -5.34493300      0.40972000      3.04229900
C      -5.03255900      1.55043400      2.29495000
C      -2.58015300     -0.10763400     -1.44749200
C      -3.96025600     -0.28010100     -1.55301700
C      -4.56541400     -0.56200300     -2.78336600
C      -3.75941300     -0.64220200     -3.91944800
C      -2.38019100     -0.45942000     -3.82712700
C      -1.78735300     -0.20555000     -2.59770600
H      -0.02207200     -1.49975500     -0.86461600
C      -0.08274400     -1.02922400      2.59439200
O      -0.15289300     -0.98029900      3.74838000
H       4.13097900      4.21428000      3.01725300
H       3.75386100      2.09217500     -0.68122600
H       1.65524800      0.71658700      2.80084900
H       2.75544100     -2.37513500      1.60045600
H       4.38558100     -0.17571700     -1.69997300
H       6.64765800     -3.35725300      0.08279100
H       1.30755800      2.53115500     -1.14731700
H       1.04116700      1.60170300     -5.32666800
H       2.11637200     -1.45937400     -2.52876900
H      -0.09004800      5.69118100     -0.32518700
H      -2.27991400      2.36813800     -1.91464600
H      -0.20807200      1.97774100      1.82285200
H      -3.68706800      2.37682700      0.84081700
H      -2.86592000     -1.67036000      1.99732000
H      -6.19886000      0.43060500      3.71601300
H      -4.58384900     -0.19755400     -0.66668100
H      -4.21539300     -0.85031000     -4.88493900
H      -0.71197000     -0.07681700     -2.52917100
H      -2.19208200     -4.56992200     -0.38196100
C      -6.04887800     -0.79172800     -2.86383500
H      -6.29801500     -1.83457100     -2.62976400
H      -6.58947900     -0.16180300     -2.14971600
H      -6.43320000     -0.58009900     -3.86664100
C      -5.84671400      2.80666200      2.43105200
H      -6.91789300      2.58492000      2.48711900
H      -5.57948800      3.35092200      3.34550200
H      -5.68105800      3.48200400      1.58619300
C      -1.66349800      4.95096200     -2.43263200
H      -2.69538600      5.30895100     -2.32734000
H      -1.02168700      5.82889300     -2.55569000
H      -1.61962100      4.36169600     -3.35506300
C       4.98760700      4.22972600      0.43061100
H       4.75835600      5.26250900      0.71497400
H       6.02594200      4.03499800      0.72668100
H       4.93549700      4.15743500     -0.65991500
C       4.84129400     -4.07256900      2.00995200
H       4.73948800     -3.66463300      3.02235500
H       4.05257200     -4.82409200      1.88473300
H       5.80632300     -4.58444600      1.94832800
C       1.73714700     -1.03522900     -5.17713900
H       1.04267900     -0.80628000     -5.99217900
H       2.74967400     -1.02961200     -5.60041000
H       1.53325700     -2.05312200     -4.83030200
H       6.42721400     -1.56650500     -1.61100000
H       2.62945800      2.57544200      4.11074900
H       0.85621000      3.22698500     -3.46556200
H      -1.76084500     -0.51882000     -4.71857200
H       0.55650100      4.32102100      1.64306600
H      -4.82885000     -1.62116800      3.52597600
