    99
 Generated by Multiwfn
C       5.84189200     -0.11657000     -2.60179500
C       5.30862300      1.11981600     -2.25461600
C       4.14960500      1.17470600     -1.48954000
C       3.49443300      0.01450900     -1.06155700
C       4.05261500     -1.24261700     -1.38330800
C       5.21643900     -1.27610600     -2.15829100
P       1.92340700      0.11301400     -0.09639100
C       1.59510300     -1.65500600      2.00404700
C       2.45776400     -0.68466900      1.48683200
C       3.68325500     -0.43284700      2.14939100
C       3.98077900     -1.18311300      3.29164500
C       3.11960600     -2.15955300      3.78269600
C       1.91288200     -2.39482500      3.13703800
C       1.73370900      1.90079500      0.34095600
C       1.43701700      2.90246100     -0.61090200
C       1.10980300      4.18263400     -0.14927200
C       1.06979600      4.49905500      1.20117700
C       1.38924500      3.52079700      2.13714700
C       1.71837500      2.24275000      1.70281800
Rh      0.04698500     -0.75158100     -1.23548500
C      -2.50393600      4.52990000     -1.13749800
C      -2.56741800      4.20395000      0.20644300
C      -2.40867800      2.89266800      0.68761600
C      -2.13429200      1.87237300     -0.24906700
C      -2.09542700      2.21986300     -1.61247400
C      -2.28474300      3.51517800     -2.06444000
P      -1.86042900      0.02845200     -0.09060500
C      -4.75724800     -0.22512300     -0.22906200
C      -3.48824500     -0.57237300     -0.74236100
C      -3.41388600     -1.41811300     -1.85212700
C      -4.55425000     -1.92341700     -2.46829300
C      -5.80401600     -1.57889300     -1.96973500
C      -5.89179600     -0.74140900     -0.86163900
C      -1.76984400     -0.45151800      1.68319900
C      -2.31115300     -1.62824800      2.24478200
C      -2.01005400     -1.91311500      3.58422300
C      -1.19532600     -1.09547800      4.35740600
C      -0.62341700      0.03340200      3.78099300
C      -0.90170100      0.32939600      2.45596900
H       0.06395800      0.71741000     -1.80363900
C      -0.12305000     -2.57106400     -0.69565100
O      -0.28652800     -3.69045600     -0.45161700
H       6.74436500     -0.18057100     -3.20357100
H       5.79294900      2.04042500     -2.56839600
H       3.76695300      2.14408800     -1.18894700
H       5.64205400     -2.24513100     -2.40953000
H       4.92087100     -0.99251700      3.80463300
H       3.39205800     -2.72499900      4.67000600
H       1.21218700     -3.13522200      3.51082100
H       0.86866200      4.94611900     -0.88527300
H       0.79839600      5.50215400      1.51822100
H       1.38390200      3.74562100      3.20033400
H       1.95401600      1.48169300      2.44024000
H      -2.64083400      5.55895400     -1.45846100
H      -2.76244100      4.98836900      0.93451800
H      -2.25209400      3.72693300     -3.12976100
H      -2.42706700     -1.67728900     -2.22140200
H      -4.46079400     -2.58123200     -3.32802900
H      -6.70958800     -1.96098900     -2.43329600
H      -6.87030900     -0.48087800     -0.46448500
H      -2.43069200     -2.81506400      4.02310500
H      -0.98801000     -1.35535200      5.39174200
H       0.05260400      0.66801300      4.34733600
H      -0.42780400      1.19136600      1.99942500
C      -0.32175800     -1.24718400     -3.35170700
C       1.06647500     -1.19997700     -3.07903000
H      -0.76642400     -2.24213400     -3.42332500
H       1.64980300     -0.34719500     -3.42344400
H       1.63813500     -2.12132700     -2.99499900
C      -1.00126800     -0.21644200     -4.21398400
H      -0.97072500     -0.51536000     -5.27228300
H      -0.50385500      0.75572800     -4.12434900
H      -2.05679100     -0.08501600     -3.94747400
C       3.49623900     -2.54222300     -0.87777300
H       3.79575600     -2.71815200      0.16250700
H       2.40379800     -2.54985900     -0.89762000
H       3.86286700     -3.37916700     -1.47998100
C       1.45232900      2.72140100     -2.10686700
H       1.81806900      1.74809800     -2.42929000
H       0.44038900      2.84812400     -2.50634400
H       2.08715000      3.48978300     -2.56594700
C      -3.16877000     -2.61497700      1.50004600
H      -4.18054800     -2.23520600      1.32478600
H      -2.75425000     -2.86821300      0.52115800
H      -3.25342400     -3.54045400      2.07726100
C      -4.94780900      0.64442600      0.97708100
H      -4.34790300      0.29295200      1.82327800
H      -4.65007800      1.67739100      0.77109300
H      -5.99688200      0.65004700      1.28651200
H       0.64812200     -1.82464300      1.50507600
C       4.69770200      0.58390700      1.70288800
H       5.35433400      0.84848000      2.53772900
H       5.32481100      0.19096500      0.89489000
H       4.23530700      1.50115700      1.33119500
H      -1.89863600      1.43833500     -2.33887100
C      -2.56952100      2.74936200      2.17897000
H      -2.89842500      1.76189900      2.49166900
H      -1.62631500      2.96116400      2.69598600
H      -3.30361500      3.47999600      2.53442900
