    85
 Generated by Multiwfn
C       3.43607100      2.38428900     -3.57710000
C       3.62946100      2.83800100     -2.26935400
C       3.17905700      2.08170000     -1.19747500
C       2.51210000      0.86745100     -1.41337100
C       2.33599600      0.41110800     -2.72488700
C       2.79755700      1.16096100     -3.79829600
P       1.88841000     -0.19628400     -0.04446300
C       3.21944600     -2.57396300      0.61765100
C       3.37705500     -1.22542800      0.29183800
C       4.66506800     -0.67618900      0.27281900
C       5.77033600     -1.46436200      0.57187700
C       5.60337100     -2.80969900      0.89947400
C       4.32687900     -3.36255700      0.92441100
C       1.89457600      0.92459900      1.40785300
C       1.30192200      2.19255700      1.33590300
C       1.14616400      2.96473000      2.48201000
C       1.56841700      2.48099900      3.71841500
C       2.15770000      1.22151300      3.79951300
C       2.32385000      0.44890500      2.65245200
Rh     -0.11858900     -1.31660200     -0.42005700
C      -0.69804800      4.54486500     -1.40888700
C      -1.48263800      4.35882800     -0.27264300
C      -1.84970800      3.07595700      0.12583600
C      -1.42890500      1.96017900     -0.60613200
C      -0.65636700      2.15849300     -1.75673300
C      -0.29415800      3.44098300     -2.15719000
P      -1.77293500      0.24433100     -0.04726900
C      -3.84298900      0.58434600     -1.96283500
C      -3.33749900     -0.17305700     -0.90446100
C      -3.99370300     -1.35763200     -0.52641000
C      -5.13560900     -1.76850600     -1.18848100
C      -5.63524600     -1.01107400     -2.25742300
C      -4.98346100      0.16145000     -2.63956100
C      -2.35354400      0.50053500      1.67386900
C      -3.68850500      0.79083000      1.98148100
C      -4.07249600      1.02344400      3.29923400
C      -3.12724900      0.98007200      4.32202400
C      -1.79618800      0.70183700      4.02233700
C      -1.41221900      0.45847000      2.70739900
H      -0.07385700     -0.61778500     -1.85166500
C      -0.27565300     -2.23646100      1.24025800
O      -0.39748100     -2.82787000      2.22419900
H       4.13551300      3.78639500     -2.11434800
H       3.33373700      2.44314000     -0.18595700
H       1.81448700     -0.52639300     -2.89447700
H       2.65409800      0.80325700     -4.81583800
H       2.22257800     -3.00180600      0.62232300
H       4.80736000      0.37054600      0.01987500
H       6.76516300     -1.02805200      0.54949000
H       6.46868500     -3.42417600      1.13211600
H       4.18884500     -4.41018300      1.17714100
H       0.95170100      2.57754800      0.38386300
H       0.68081900      3.94337900      2.40475200
H       1.43806200      3.08202200      4.61391800
H       2.49446000      0.83641900      4.75819600
H       2.78453200     -0.53219300      2.72816900
H      -0.39999300      5.54580000     -1.70832600
H      -1.80488700      5.21527500      0.31345300
H      -2.44434500      2.94353100      1.02400100
H      -0.30904900      1.29797000     -2.31953700
H       0.32449800      3.57204300     -3.04061700
H      -3.34482600      1.50171100     -2.26094400
H      -3.58794100     -1.95673500      0.28522700
H      -5.65534900     -2.67934900     -0.90621700
H      -5.37413100      0.74891100     -3.46805500
H      -4.43161700      0.83547300      1.19082200
H      -5.11280900      1.24035800      3.52574200
H      -3.42922200      1.16135500      5.34990700
H      -1.04892700      0.67005900      4.81005100
H      -0.37241900      0.24422000      2.48330200
C      -0.99973000     -2.92379300     -1.61319300
C       0.40211700     -3.10882000     -1.51920000
H      -1.62759900     -3.53043100     -0.95939200
H       1.02519400     -2.89959200     -2.38730100
H       0.80663300     -3.87189800     -0.85800700
C      -1.65342600     -2.55039300     -2.91838600
H      -1.94987700     -3.45737400     -3.46542000
H      -0.96061800     -1.98411900     -3.55039700
H      -2.55357600     -1.94612400     -2.77874100
C      -6.84214300     -1.44699200     -2.97913700
O      -7.47756000     -2.44843700     -2.71848800
C       3.90350800      3.18777800     -4.72120500
O       4.45215200      4.26633700     -4.62505400
H       3.71698400      2.73186500     -5.71699100
H      -7.15186200     -0.77851200     -3.81111000
