    85
 Generated by Multiwfn
C       3.32655500      3.35514800     -2.57727700
C       4.26008700      2.78165000     -1.72083700
C       3.90053200      1.80064300     -0.79023300
C       2.56193000      1.33186200     -0.75072500
C       1.64838000      1.90942200     -1.63040900
C       2.00950100      2.92168700     -2.52076200
P       1.88991200     -0.03669700      0.30314300
C       3.81724700     -1.56919400     -0.99069100
C       3.25707100     -1.25859600      0.25324500
C       3.69077300     -1.95186800      1.38392200
C       4.66933000     -2.93602500      1.27281200
C       5.23173600     -3.23433000      0.03446700
C       4.80382100     -2.54403000     -1.09767100
C       1.92678000      0.67762800      1.99514400
C       2.37586600      1.97624700      2.25314400
C       2.34515400      2.49325900      3.54426000
C       1.86614700      1.72181500      4.60013400
C       1.40633900      0.43182400      4.35281600
C       1.42723200     -0.08024900      3.05930400
Rh     -0.07870600     -1.11681000     -0.39653900
C      -1.60957800      3.40221900     -3.89034900
C      -1.67089700      3.89304700     -2.58880100
C      -1.78562600      3.01851100     -1.51025200
C      -1.82169400      1.63915200     -1.72433600
C      -1.74692100      1.15094200     -3.03489200
C      -1.65259300      2.02586400     -4.11138200
P      -1.87429800      0.37858500     -0.38967400
C      -4.78150700      0.31727100     -0.86991800
C      -3.56133800     -0.36747900     -0.63993000
C      -3.59140700     -1.76058600     -0.66999700
C      -4.76018300     -2.47705800     -0.93030500
C      -5.94209500     -1.80074100     -1.19733500
C      -5.93883100     -0.41094800     -1.16765600
C      -2.03031500      1.26922900      1.19729500
C      -3.03139900      0.94324200      2.11660900
C      -3.05078600      1.53552700      3.37581500
C      -2.07874400      2.46829200      3.72706100
C      -1.07579700      2.79379900      2.81775700
C      -1.03995900      2.18487700      1.56840700
H       0.25712500     -0.51466100     -1.83503600
C      -0.61077500     -1.94500300      1.23144100
O      -1.01129500     -2.49737600      2.16462700
H       5.29645700      3.11158700     -1.75373400
H       0.63084600      1.53943200     -1.63635900
H       3.48292700     -1.04189000     -1.88109200
H       3.28983500     -1.70330100      2.36138600
H       5.00379800     -3.46065300      2.16385800
H       5.99992300     -3.99815500     -0.04828300
H       5.23559200     -2.76753200     -2.06975700
H       2.75101300      2.59339400      1.44383300
H       2.70093400      3.50433800      3.72466800
H       1.84324500      2.12720800      5.60789400
H       1.01760200     -0.17714200      5.16411400
H       1.04114500     -1.07770100      2.88019100
H      -1.52750100      4.08756600     -4.72973600
H      -1.64127100      4.96400300     -2.40730700
H      -1.86443400      3.41113100     -0.50363600
H      -1.74114200      0.07792200     -3.20765600
H      -1.60171100      1.63219200     -5.12289400
H      -2.65831500     -2.28704500     -0.50371500
H      -6.86061400      0.13417100     -1.36005600
H      -3.80241800      0.22631500      1.84932200
H      -3.83346300      1.27004500      4.08146400
H      -2.09628900      2.93287900      4.70905800
H      -0.29922100      3.50134500      3.08961200
H      -0.22698800      2.41667900      0.88540600
C      -0.52522000     -2.93760700     -1.54551400
C       0.85022000     -2.88173200     -1.22424200
H      -1.13476700     -3.61570200     -0.94394100
H       1.56502400     -2.62045700     -2.00038500
H       1.26021400     -3.50105200     -0.42966700
C      -1.03163500     -2.74991700     -2.95140300
H      -1.08439900     -3.71451700     -3.47804100
H      -0.36647500     -2.08831500     -3.51627800
H      -2.03765800     -2.31446400     -2.97057900
H      -6.85558800     -2.34292700     -1.42238600
H       3.62920100      4.12564700     -3.28025700
H       1.25238200      3.34487400     -3.17418700
H      -4.73228300     -3.56309800     -0.93761900
C       5.00537500      1.39968700      0.11163200
O       4.90741900      0.81804700      1.16822300
C      -5.00442100      1.77359300     -0.75856600
O      -4.24814500      2.59086700     -0.28365100
H       6.00185600      1.73214400     -0.25195400
H      -6.00305600      2.08994700     -1.12999100
