    81
 Generated by Multiwfn
C       3.35584400      2.30672700     -3.70087200
C       3.63138800      2.74771500     -2.41557500
C       3.19077400      1.98477300     -1.33859700
C       2.46832700      0.80310300     -1.53898300
C       2.21941100      0.38495300     -2.85149500
C       2.66110000      1.12870700     -3.93895300
P       1.87535700     -0.25931600     -0.16270000
C       3.18470700     -2.64825400      0.50683600
C       3.35379600     -1.30743200      0.15315000
C       4.65250100     -0.78646500      0.08676200
C       5.75576900     -1.58196900      0.36597400
C       5.54827500     -2.90953800      0.71860100
C       4.27869100     -3.45910900      0.79628100
C       1.93029900      0.86541600      1.28773800
C       1.35820700      2.14377400      1.22656700
C       1.22633900      2.92455900      2.36842400
C       1.66209400      2.41288200      3.58197700
C       2.23756800      1.15486100      3.68076600
C       2.37151200      0.38723500      2.52749300
Rh     -0.15389400     -1.36684300     -0.46812000
C      -0.67779500      4.46134900     -1.43851500
C      -1.41466800      4.31733300     -0.27147300
C      -1.79093800      3.03947100      0.13018500
C      -1.42927500      1.91425200     -0.61993000
C      -0.70080900      2.10186900     -1.80123700
C      -0.32074700      3.37147900     -2.21996000
P      -1.79148500      0.20447700     -0.05442100
C      -4.01046800      0.68275900     -1.77231600
C      -3.40656400     -0.15773400     -0.83568600
C      -4.03415600     -1.36623200     -0.50284400
C      -5.24290600     -1.72593600     -1.08148300
C      -5.81228500     -0.87029000     -2.01720900
C      -5.21569400      0.32746200     -2.37521800
C      -2.28982900      0.47968500      1.68967800
C      -3.60329000      0.79796000      2.05686500
C      -3.93092100      1.04945700      3.38506100
C      -2.92827600      0.98757100      4.34246800
C      -1.61640000      0.67956200      4.01396300
C      -1.30730800      0.42135000      2.68412100
H      -0.15212700     -0.66371200     -1.89839800
C      -0.27868600     -2.28786800      1.19138100
O      -0.38912500     -2.87791500      2.17833500
H       4.18046100      3.67200300     -2.26887600
H       1.65612200     -0.52854100     -3.01921300
H       2.18247900     -3.06096000      0.54697000
H       4.80985600      0.25098500     -0.19254400
H       6.76690900     -1.19170000      0.31337700
H       4.15717500     -4.50177000      1.07094500
H       1.00200400      2.53774000      0.28059500
H       0.77816700      3.91172800      2.32590500
H       2.57447000      0.79010400      4.64571300
H       2.81817400     -0.60023900      2.60061600
H      -1.67899900      5.19499800      0.30954800
H      -2.35231100      2.92223700      1.05118300
H      -0.39888000      1.23835600     -2.38431500
H       0.26262400      3.51763700     -3.12307900
H      -3.56174100     -2.03659300      0.21098400
H      -5.69305700      0.96809600     -3.10950300
H      -4.38123300      0.85081900      1.30121900
H      -4.94577100      1.29084800      3.68386200
H      -0.85761500      0.64082300      4.78848200
H      -0.28525400      0.17639400      2.41544300
C      -1.06859600     -2.96789900     -1.63988900
C       0.33703900     -3.14877900     -1.59443900
H      -1.66951200     -3.58762300     -0.97309800
H       0.92997400     -2.92974200     -2.48099900
H       0.76537800     -3.91813000     -0.95566700
C      -1.76910000     -2.58178600     -2.91702500
H      -2.09256800     -3.48203700     -3.46004700
H      -1.09697200     -2.01502500     -3.57060300
H      -2.65833100     -1.97114600     -2.73785100
H       2.46954600      0.81261900     -4.95922900
H      -5.73973200     -2.65754000     -0.83118400
H      -3.54120300      1.62436800     -2.04039800
H       3.40495800      2.32902300     -0.33161500
F      -3.23877000      1.23053100      5.62245900
F      -6.97260800     -1.21782400     -2.59027500
F      -0.29820200      5.68761400     -1.81949300
F       1.52149900      3.15337200      4.69007400
F       3.77143400      3.03820500     -4.74267700
F       6.60967700     -3.68046700      0.98745000
