   117
 Generated by Multiwfn
C      -1.02065600     -3.13691000      0.67775300
C       0.38922500     -3.29431900      0.72049000
H      -1.54425000     -3.28671900      1.62427400
H       0.86245600     -3.58814400      1.65507800
H       0.92624200     -3.60938800     -0.17214700
C      -1.84593400     -3.49310300     -0.53099900
H      -2.74590200     -2.87410500     -0.61014100
H      -1.27241800     -3.34866800     -1.45238300
C       3.93368600      3.18337500      2.55267800
C       4.22905700      3.11578400      1.18613800
C       3.57904300      2.15911400      0.40892500
C       2.64387700      1.28473300      0.97500700
C       2.36513100      1.38159300      2.33579400
C       3.00452300      2.32899200      3.14210200
P       1.91422800     -0.11739400      0.02452800
C       3.53057500     -2.18122000      0.94839500
C       3.42074500     -1.18111700     -0.01348400
C       4.48757400     -0.95644600     -0.89177400
C       5.64164500     -1.73263900     -0.82759500
C       5.72260900     -2.73487500      0.14667200
C       4.68373400     -2.96804600      1.04408800
C       1.82740600      0.51166400     -1.69609300
C       1.48322800      1.83441500     -1.98533300
C       1.31808900      2.25757900     -3.30630700
C       1.50543400      1.33404500     -4.33649200
C       1.83537600      0.00262000     -4.07512600
C       1.98087800     -0.39807500     -2.74692600
Rh     -0.05485900     -1.18255100      0.65703900
C      -0.81196300      4.77138000     -0.33209100
C      -1.63749700      4.18279600     -1.29463000
C      -1.91187500      2.81872200     -1.19595500
C      -1.38207800      2.05723500     -0.15048900
C      -0.56859600      2.67105700      0.80100800
C      -0.27102300      4.03393400      0.72196300
P      -1.76461400      0.27634800      0.08195400
C      -3.90957600      1.54611300      1.45090300
C      -3.14713900      0.38379600      1.28832600
C      -3.46534400     -0.75044900      2.03252200
C      -4.53276900     -0.74540600      2.93550700
C      -5.27371000      0.42590900      3.08001000
C      -4.97466500      1.58114500      2.34921300
C      -2.63235200     -0.12705000     -1.48291300
C      -4.01662600     -0.29633000     -1.54496400
C      -4.64582200     -0.60493600     -2.75353300
C      -3.86350700     -0.71638400     -3.90348500
C      -2.47782600     -0.54161300     -3.86926000
C      -1.86923100     -0.25458400     -2.64696800
H      -0.01510300     -1.44480300     -0.91393900
C      -0.13789500     -0.98992600      2.54584900
O      -0.23053300     -0.93788100      3.69836500
H       4.43750000      3.92678800      3.16858200
H       3.81356700      2.09171000     -0.64993500
H       1.64061300      0.70692200      2.78252100
H       2.69802500     -2.35007900      1.62630000
H       4.41807700     -0.17359500     -1.64232700
H       6.62151200     -3.34708000      0.20404700
H       1.33271000      2.54650400     -1.17918700
H       1.38775500      1.65889300     -5.36949800
H       2.22344900     -1.43585700     -2.52930800
H      -0.58583400      5.83423400     -0.40528400
H      -2.54922200      2.34779200     -1.93904100
H      -0.14591600      2.07549000      1.60577400
H      -3.67073500      2.43426700      0.87200100
H      -2.86470500     -1.64695700      1.90570400
H      -6.10468700      0.44429200      3.78371800
H      -4.61684500     -0.18785600     -0.64577900
H      -4.34484100     -0.94589300     -4.85290900
H      -0.78966800     -0.12494600     -2.60320500
H      -2.16704700     -4.54462300     -0.48446000
C      -6.13148900     -0.82949300     -2.80457000
H      -6.37651700     -1.88228600     -2.61451900
H      -6.65081800     -0.23357100     -2.04707100
H      -6.54260600     -0.57073900     -3.78572200
C      -5.78035300      2.83577800      2.54201800
H      -6.85585400      2.63222000      2.48869900
H      -5.58475600      3.28359100      3.52415900
H      -5.53751000      3.58433400      1.78193100
C      -2.23795100      5.01073600     -2.39634700
H      -3.06481200      5.62642800     -2.02050800
H      -1.50022300      5.69258600     -2.83347100
H      -2.63480200      4.37915300     -3.19713400
C       5.24333800      4.04411400      0.57803700
H       5.04358500      5.08683400      0.84967400
H       6.25537800      3.80704000      0.92838700
H       5.24361600      3.97229900     -0.51367700
C       4.78209700     -4.03983300      2.09359700
H       4.74023800     -3.61061100      3.10181800
H       3.95151400     -4.75085400      2.01195600
H       5.71727800     -4.60109100      2.00636400
C       2.05783100     -0.97489000     -5.19526100
H       1.52028200     -0.67587800     -6.10060800
H       3.12262900     -1.04322400     -5.45201800
H       1.72632700     -1.98076200     -4.91726300
C      -1.65081600     -0.67365300     -5.11747100
H      -0.98715400      0.18850700     -5.24295800
H      -1.01050900     -1.56294500     -5.07215900
H      -2.28117600     -0.75904600     -6.00794700
C      -4.84719500     -1.97444700      3.74174900
H      -4.05797900     -2.17242900      4.47741500
H      -5.79093700     -1.86708500      4.28491800
H      -4.92157800     -2.86134000      3.10238100
C       6.77837200     -1.50780800     -1.78585200
H       7.72415900     -1.35391700     -1.25354600
H       6.91747900     -2.37218600     -2.44664300
H       6.59887600     -0.63156800     -2.41608300
C       2.65689600      2.44263600      4.59953700
H       1.73114800      3.01675000      4.73577100
H       2.49420500      1.45768300      5.04912400
H       3.44591700      2.95140700      5.16179700
C       0.64080800      4.67507400      1.72862100
H       0.38527000      4.36901600      2.74893000
H       1.68077300      4.37447300      1.55706000
H       0.58894800      5.76707400      1.67619700
C       0.93686300      3.67707200     -3.61815600
H      -0.08764600      3.73013300     -4.00538200
H       0.98102900      4.30412500     -2.72360300
H       1.59621600      4.10870800     -4.37995600
