    81
 Generated by Multiwfn
C      -3.18127000     -3.91281200      1.48103900
C      -3.33405800     -2.70074000      2.14509100
C      -2.96296200     -1.52397800      1.50181300
C      -2.42179600     -1.54772800      0.21245500
C      -2.29994000     -2.77958000     -0.43940300
C      -2.67858900     -3.96234200      0.18322900
P      -1.88325800     -0.03854600     -0.68577200
C      -3.40343400      1.09298300     -2.74928700
C      -3.45042800      0.48686500     -1.49254100
C      -4.69168500      0.33061000     -0.86499800
C      -5.85909800      0.77033500     -1.47533500
C      -5.78257600      1.37847300     -2.72646900
C      -4.56290300      1.54655200     -3.37174000
C      -1.73267600      1.21523500      0.64517400
C      -1.01695200      0.92953700      1.81505800
C      -0.71491400      1.92812700      2.73219600
C      -1.12332200      3.23323600      2.47467500
C      -1.84547100      3.54366100      1.32657300
C      -2.14982900      2.53188500      0.42064800
Rh      0.00622300     -0.21433100     -2.03195800
C       0.96450200     -2.27944600      3.43432100
C       1.74766600     -1.12852600      3.42998500
C       2.05225200     -0.51809900      2.21720900
C       1.57321100     -1.04028600      1.01100900
C       0.81075700     -2.21328000      1.04435700
C       0.50360400     -2.83944600      2.24627800
P       1.81103200     -0.18043200     -0.59745700
C       3.93982500     -2.06825900     -0.69133600
C       3.32679100     -0.95681800     -1.26940200
C       3.85883100     -0.42461000     -2.45084600
C       4.98589300     -0.98037300     -3.03874100
C       5.57640200     -2.09609800     -2.44671100
C       5.06200800     -2.64796500     -1.27997000
C       2.45698000      1.45264700     -0.06135300
C       3.81360500      1.67094000      0.20635900
C       4.26039800      2.90676100      0.66160100
C       3.33799600      3.93084000      0.85784400
C       1.98463900      3.73979500      0.59973600
C       1.55496700      2.50208800      0.13625800
H      -0.02606800     -1.75049200     -1.61238900
C       0.13520400      1.58149200     -2.65135700
O       0.23508100      2.65227100     -3.07119900
H      -3.73345100     -2.67712800      3.15348700
H      -1.88098100     -2.81308200     -1.44109700
H      -2.44663500      1.20202100     -3.24849500
H      -4.75618300     -0.14544900      0.10883400
H      -6.82089500      0.64411400     -0.98941800
H      -4.52074400      2.01760400     -4.34813700
H      -0.67281000     -0.07987600      2.01334100
H      -0.15087800      1.69660000      3.62954900
H      -2.70997000      2.78044900     -0.47642200
H       2.10621900     -0.70985600      4.36468500
H       2.64591600      0.39022700      2.22221200
H       0.42095700     -2.62295700      0.11843000
H      -0.10850600     -3.73511500      2.26133100
H       3.37486900      0.42784300     -2.92144800
H       5.53482900     -3.51603500     -0.83266600
H       4.53347900      0.87090100      0.06091500
H       5.31290400      3.07484200      0.86460800
H       1.27613600      4.54587700      0.75804800
H       0.49994300      2.35321900     -0.06703500
C       0.68967300     -1.10177500     -3.91430600
C      -0.71914100     -0.95590500     -3.93580600
H       1.27487000     -0.35555500     -4.45315200
H      -1.34592800     -1.83945900     -3.82603800
H      -1.17472300     -0.15954100     -4.52019100
C       1.33636500     -2.46080300     -3.84448800
H       1.54196700     -2.83470100     -4.85806700
H       0.67554400     -3.17830400     -3.34598300
H       2.28646200     -2.44530600     -3.30366400
H      -2.57537900     -4.91486300     -0.32595100
H       5.39855700     -0.56529600     -3.95225200
H       3.54438700     -2.49312000      0.22634600
H      -3.08443400     -0.58253500      2.02841100
H      -2.16521900      4.56398700      1.14196800
Cl      6.97900100     -2.80985400     -3.18559500
Cl      3.88777000      5.47569500      1.43304000
Cl     -0.70783200      4.49658400      3.59339500
Cl      0.54506100     -3.02335100      4.94726400
Cl     -3.61987500     -5.38956900      2.28455100
Cl     -7.24021400      1.93032600     -3.49505100
