    81
 Generated by Multiwfn
C       3.47377800      2.18078300     -3.74540800
C       3.78581900      2.63435600     -2.46569600
C       3.32334300      1.94884700     -1.34616900
C       2.52753900      0.80652100     -1.48934300
C       2.22979300      0.35458300     -2.77840000
C       2.70058100      1.03254100     -3.89916700
P       1.87877900     -0.17924800     -0.07188500
C       3.41488300     -2.52849900      0.34372200
C       3.39511300     -1.13423000      0.38688500
C       4.56029400     -0.45771300      0.77356900
C       5.71225800     -1.15979000      1.10583000
C       5.72044000     -2.55372300      1.05774400
C       4.57014900     -3.23510300      0.67602500
C       1.83955300      1.02691300      1.31146500
C       1.44569200      2.35902100      1.13563700
C       1.31139100      3.20753400      2.23233200
C       1.55900700      2.73978300      3.52014100
C       1.94266600      1.41217300      3.70668800
C       2.08074000      0.56350200      2.61317800
Rh     -0.08582800     -1.42917100     -0.39138100
C      -0.57008000      4.45927300     -1.41445500
C      -1.31982400      4.31880400     -0.24841800
C      -1.70944900      3.05419400      0.18815400
C      -1.34699700      1.91826700     -0.54052400
C      -0.61195300      2.06886000     -1.72178100
C      -0.22298000      3.33098600     -2.15688500
P      -1.74948000      0.20730300     -0.02916100
C      -4.16778500      0.92601600     -1.30865600
C      -3.29975100     -0.11441200     -0.95964300
C      -3.65149600     -1.43069500     -1.27521200
C      -4.85213100     -1.70225000     -1.92608200
C      -5.70866000     -0.66113200     -2.27439100
C      -5.36347800      0.65333000     -1.96597100
C      -2.37077700      0.38500500      1.68425300
C      -3.65377100     -0.02673200      2.05830600
C      -4.05846400      0.05583400      3.38925800
C      -3.19171300      0.55487700      4.35740100
C      -1.91159500      0.96737700      3.99134700
C      -1.50036900      0.87479900      2.66664400
H       0.87003400     -2.65216700     -0.69872400
C      -0.56404300     -1.68831700     -2.17814800
O      -0.79703800     -1.91927700     -3.29118900
H       3.83381800      2.71873300     -4.61812900
H       4.39206300      3.52690000     -2.33597900
H       3.57006600      2.32362300     -0.35771500
H       1.61135500     -0.53003700     -2.89865900
H       2.45532900      0.66591500     -4.89217600
H       2.51569900     -3.05959300      0.04671400
H       4.56665800      0.62687000      0.82452000
H       6.60610700     -0.61835900      1.40368000
H       6.62107200     -3.10302100      1.31826000
H       4.56506800     -4.32104200      0.63649200
H       1.23495300      2.74000000      0.14203200
H       1.00113500      4.23621900      2.07182500
H       1.45238000      3.40347100      4.37374700
H       2.13582300      1.03428600      4.70699600
H       2.38146700     -0.46843500      2.76973200
H      -0.25603200      5.44594600     -1.74380100
H      -1.59740000      5.19600200      0.32993200
H      -2.27755500      2.95076400      1.10773300
H      -0.31704700      1.18792400     -2.28335300
H       0.37098500      3.42648600     -3.06146200
H      -3.90478300      1.95283900     -1.07079000
H      -2.97227000     -2.23769900     -1.01498800
H      -5.11272300     -2.72884300     -2.16836000
H      -6.64179100     -0.87215200     -2.78951400
H      -6.02602800      1.46989000     -2.23970800
H      -4.34161900     -0.40903700      1.31032700
H      -5.05783100     -0.26837600      3.66643900
H      -3.51133500      0.62051400      5.39380100
H      -1.22313600      1.35722200      4.73602600
H      -0.49992600      1.18990000      2.39234400
C      -1.09955700     -2.80219400      0.97469100
C      -0.03893700     -2.16277400      1.65622000
H      -2.10294700     -2.42457300      1.18090900
H       0.87437700     -2.72064200      1.85908100
H      -0.25057200     -1.36326800      2.36248800
C      -1.06137800     -4.26148700      0.60174000
H      -1.48241500     -4.87810000      1.40982600
H      -0.03306500     -4.59158200      0.42162700
H      -1.63923900     -4.46703700     -0.30616500
