    99
 Generated by Multiwfn
C       3.42573700      2.19041300     -3.74912100
C       3.73539200      2.62947300     -2.45906300
C       3.30068700      1.93340000     -1.33623600
C       2.52066200      0.77986300     -1.46782200
C       2.21974400      0.33254700     -2.75749100
C       2.66590800      1.02407300     -3.87779000
P       1.88160100     -0.20267700     -0.04660700
C       3.40384800     -2.55361000      0.41293700
C       3.39194700     -1.16022400      0.41341200
C       4.57100100     -0.48940400      0.76945600
C       5.71625400     -1.19362600      1.10877800
C       5.73107500     -2.59460600      1.10596700
C       4.55718200     -3.25853000      0.75437800
C       1.84724300      1.00932700      1.32952000
C       1.44373800      2.33827100      1.15341300
C       1.29549800      3.18532200      2.24677400
C       1.52970700      2.73930100      3.54989900
C       1.93650600      1.41251500      3.72214700
C       2.09215200      0.56051000      2.63442100
Rh     -0.09322500     -1.44708400     -0.34833100
C      -0.44360100      4.42857900     -1.46236800
C      -1.20434200      4.30487200     -0.29746200
C      -1.64021600      3.06011700      0.15275900
C      -1.31890100      1.90366300     -0.55913400
C      -0.58269100      2.02472500     -1.74368500
C      -0.15007500      3.26615300     -2.18625600
P      -1.74631700      0.21106500     -0.01634300
C      -4.15145400      0.92342000     -1.32199500
C      -3.29198800     -0.11463200     -0.94717400
C      -3.66341600     -1.43046800     -1.23845900
C      -4.86464500     -1.69861900     -1.88621500
C      -5.72346900     -0.66580300     -2.27089800
C      -5.34676100      0.64826700     -1.97566800
C      -2.37104400      0.43379900      1.68874000
C      -3.67919100      0.11445000      2.06127300
C      -4.08635400      0.24306400      3.38722700
C      -3.20895100      0.69289500      4.37530300
C      -1.90127900      1.01422100      3.99454700
C      -1.48409300      0.87908200      2.67779900
H       0.85554100     -2.68169300     -0.63557200
C      -0.56951900     -1.72295300     -2.13222800
O      -0.80175700     -1.96419400     -3.24377400
H       4.32544600      3.53446300     -2.33011200
H       3.55244600      2.31480400     -0.35144200
H       1.60994300     -0.55797800     -2.88005800
H       2.49902400     -3.08954600      0.14251100
H       4.59194500      0.59621500      0.79087100
H       6.61779900     -0.64964400      1.38288000
H       1.23313300      2.71874900      0.15955800
H       0.97490100      4.21099200      2.07861300
H       2.40788500     -0.46557300      2.80070300
H      -1.44830400      5.19573400      0.27732800
H      -2.20640600      2.98967400      1.07685600
H      -0.31531000      1.13200300     -2.30007000
H      -3.88320900      1.95328000     -1.10262300
H      -2.99935600     -2.24369100     -0.95876400
H      -6.00052600      1.46869000     -2.26361000
H      -4.38880100     -0.23043700      1.31529600
H      -1.19246200      1.36664100      4.74102200
H      -0.46303400      1.12846700      2.41305700
C      -1.12507100     -2.78556400      1.03473400
C      -0.05487400     -2.15172000      1.70770300
H      -2.12301300     -2.39107600      1.23665900
H       0.85058200     -2.71956600      1.91812000
H      -0.25515500     -1.34107900      2.40438900
C      -1.10719200     -4.25073300      0.68355400
H      -1.53342400     -4.85085100      1.50150100
H      -0.08358400     -4.59609400      0.50506000
H      -1.69033700     -4.46210000     -0.21973100
H      -5.10979100     -0.00865900      3.65639000
H      -5.13614800     -2.72921900     -2.10376800
H       0.45198700      3.32842300     -3.08985600
H       2.40919400      0.65764900     -4.86935000
H       4.53886300     -4.34614400      0.74762900
H       2.13222700      1.03844300      4.72470200
C      -6.99925400     -0.95538900     -3.00865200
H      -7.76625700     -0.20483800     -2.79247800
H      -6.83224400     -0.94873700     -4.09333300
H      -7.39820800     -1.94033300     -2.74653800
C      -3.64215900      0.80599900      5.80902500
H      -3.28310900     -0.04960200      6.39487700
H      -3.23951100      1.71020500      6.27804800
H      -4.73250700      0.83117400      5.89740600
C       0.05312600      5.76489100     -1.93509200
H      -0.43885800      6.06129900     -2.86949700
H      -0.13523700      6.54820900     -1.19499100
H       1.13048100      5.73496100     -2.13431400
C       3.91479700      2.93315000     -4.95975200
H       4.08288200      3.99206700     -4.73943400
H       4.86626300      2.51773100     -5.31565600
H       3.20117900      2.86363200     -5.78706600
C       1.31233800      3.64587800      4.72769500
H       1.87802600      3.31042500      5.60245100
H       1.60930300      4.67527100      4.50166300
H       0.25170200      3.67009700      5.01065500
C       6.98057700     -3.34800400      1.46252000
H       7.39627200     -3.00173900      2.41565200
H       6.78959200     -4.42196400      1.54537600
H       7.75736500     -3.20431100      0.70142100
