    99
 Generated by Multiwfn
C       3.85802200      1.90184300     -3.75276900
C       4.13425800      2.39192200     -2.47818800
C       3.51798900      1.83739500     -1.36114000
C       2.61166300      0.78173800     -1.51477300
C       2.33853300      0.31015900     -2.79973400
C       2.94965400      0.85662100     -3.93142600
P       1.85259100     -0.12504200     -0.09859700
C       3.33632800     -2.49785100      0.32631200
C       3.32066900     -1.11097600      0.45127000
C       4.45365300     -0.46950000      0.97248500
C       5.56198900     -1.21200100      1.35500000
C       5.55960100     -2.60046700      1.22266100
C       4.44760300     -3.26102600      0.70433400
C       1.79114100      1.12670900      1.24083800
C       1.48119500      2.47092100      1.00212800
C       1.35097300      3.35338500      2.07056500
C       1.51527000      2.90874400      3.38009300
C       1.80694400      1.56740200      3.64325500
C       1.94237000      0.69314200      2.56328300
Rh     -0.11666700     -1.34930200     -0.47524400
C      -0.74851200      4.54618100     -1.44898400
C      -1.49317700      4.39177000     -0.28233800
C      -1.82904400      3.12145000      0.17541600
C      -1.40461500      1.99562700     -0.53633900
C      -0.66621900      2.16414500     -1.71030300
C      -0.32986300      3.43392400     -2.18492600
P      -1.76948600      0.27572400     -0.02839400
C      -4.29072600      0.97392000     -1.10725900
C      -3.36208100     -0.04945600     -0.88713800
C      -3.67978900     -1.35399000     -1.26898700
C      -4.90519500     -1.66115200     -1.86795400
C      -5.81750300     -0.62580500     -2.07739800
C      -5.51194400      0.68121700     -1.70283000
C      -2.31260700      0.41225300      1.71402000
C      -3.47482100     -0.22323200      2.15836400
C      -3.83724500     -0.21708800      3.50867400
C      -3.01722400      0.45757600      4.41529800
C      -1.85805000      1.09815400      3.98385900
C      -1.49662600      1.06980100      2.64216200
H       0.84139800     -2.55761400     -0.83570900
C      -0.60986300     -1.53162900     -2.26554800
O      -0.85766700     -1.70816500     -3.38614900
H       4.34783400      2.34073900     -4.61913800
H       4.83984100      3.20925500     -2.35372300
H       3.74357900      2.23007200     -0.37476400
H       1.63100000     -0.50650800     -2.91770400
H       2.45685500     -2.99660600     -0.07285400
H       4.46415500      0.60894900      1.09446900
H       6.43465800     -0.70832100      1.76247100
H       6.43113300     -3.17493700      1.52851200
H       1.33649500      2.83058900     -0.01097200
H       1.11081100      4.39477200      1.87493900
H       1.41127200      3.60691500      4.20756100
H       2.17537400     -0.35074900      2.75918800
H      -0.48894900      5.54377200     -1.79612100
H      -1.81518800      5.26801000      0.27425100
H      -2.40321100      3.00645800      1.08950400
H      -0.32345400      1.28549600     -2.25141600
H      -4.05698800      1.99443500     -0.81830700
H      -2.94974800     -2.14233600     -1.10187200
H      -6.77631000     -0.84394800     -2.54246100
H      -6.23227700      1.47618400     -1.87676800
H      -4.12015600     -0.72704000      1.44291200
H      -3.29137200      0.48332900      5.46759400
H      -1.22987700      1.62893500      4.69444300
H      -0.59265500      1.56970300      2.31502900
C      -1.11130600     -2.78046100      0.84517100
C      -0.06878800     -2.14027000      1.55301000
H      -2.12331800     -2.42944200      1.05394100
H       0.85488700     -2.68393900      1.74692300
H      -0.30151000     -1.36140700      2.27632400
C      -1.04240200     -4.22755500      0.43013800
H      -1.45809100     -4.87606600      1.21591300
H      -0.00666600     -4.53341100      0.24897800
H      -1.60888900     -4.41654300     -0.48869800
C      -5.20522400     -3.06859600     -2.30077000
H      -6.28126800     -3.23354900     -2.41310200
H      -4.73335800     -3.28747400     -3.26691000
H      -4.81943000     -3.79781000     -1.58051400
C      -5.07352600     -0.93896200      3.96671900
H      -5.85708600     -0.91227400      3.20260200
H      -4.85620200     -1.99456600      4.17374900
H      -5.47590700     -0.50105900      4.88559700
C       0.50222800      3.58580700     -3.42578200
H       1.55791600      3.38229000     -3.21110400
H       0.19114400      2.87851500     -4.20169100
H       0.42919600      4.59833600     -3.83461600
C       1.94092000      1.05660300      5.05027100
H       2.81481000      0.40498000      5.15694400
H       2.03738400      1.87747300      5.76744500
H       1.06077500      0.46565200      5.33380600
C       4.42610400     -4.75514300      0.54091700
H       3.51366700     -5.18828900      0.96621000
H       4.45176500     -5.03566500     -0.51918500
H       5.28491700     -5.22389500      1.03078000
C       2.59955400      0.35409000     -5.30337200
H       3.41959400      0.51337800     -6.01057100
H       2.35955700     -0.71360300     -5.28816100
H       1.71919400      0.87886100     -5.69673400
