    87
 Generated by Multiwfn
C       3.45314900      2.20783900     -3.76165200
C       3.76479800      2.64019000     -2.46966200
C       3.31701400      1.94852400     -1.34955600
C       2.52268300      0.80517000     -1.48616200
C       2.21733800      0.36588000     -2.77752800
C       2.67568400      1.05395600     -3.89507100
P       1.88170100     -0.18320600     -0.07078400
C       3.41625200     -2.53233200      0.35477300
C       3.39849600     -1.13780600      0.38807100
C       4.56601400     -0.46031500      0.76585800
C       5.71822200     -1.16157100      1.09901700
C       5.72432700     -2.55586700      1.06083600
C       4.57172700     -3.23826700      0.68800500
C       1.84336500      1.02127700      1.31433300
C       1.44984800      2.35363700      1.13980900
C       1.31679900      3.20150200      2.23716400
C       1.56566200      2.73296900      3.52445800
C       1.94927000      1.40514500      3.70973200
C       2.08590100      0.55713700      2.61551200
Rh     -0.08390900     -1.43379400     -0.38561900
C      -0.56236000      4.45565300     -1.41389000
C      -1.31112400      4.31647300     -0.24705800
C      -1.70217300      3.05248300      0.19017200
C      -1.34267300      1.91582000     -0.53877800
C      -0.60935800      2.06537400     -1.72119000
C      -0.21831700      3.32668200     -2.15668400
P      -1.74685000      0.20516700     -0.02671000
C      -4.16629100      0.91996100     -1.30659200
C      -3.29302200     -0.11588100     -0.95814300
C      -3.65121600     -1.42963500     -1.27471500
C      -4.85274900     -1.69790500     -1.92194000
C      -5.72473500     -0.66710700     -2.28132700
C      -5.36131000      0.64473700     -1.96040400
C      -2.36723000      0.38603800      1.68705800
C      -3.65249300     -0.01987500      2.05962300
C      -4.05867900      0.06492100      3.38999700
C      -3.19106700      0.56059900      4.35913900
C      -1.90868200      0.96740100      3.99459400
C      -1.49610600      0.87244200      2.67044300
H       0.87113100     -2.65825700     -0.69116300
C      -0.56254400     -1.69369000     -2.17190800
O      -0.79607100     -1.92545800     -3.28485000
H       4.36664700      3.53669500     -2.33712900
H       3.57158100      2.32490300     -0.36356300
H       1.59735000     -0.51688000     -2.90376900
H       2.41626600      0.69343400     -4.88804600
H       2.51520600     -3.06397700      0.06439300
H       4.57389600      0.62463700      0.80863900
H       6.61390900     -0.61931700      1.38987400
H       6.62512600     -3.10458900      1.32208100
H       4.56504100     -4.32447600      0.65614500
H       1.23840300      2.73495600      0.14650100
H       1.00647400      4.23033900      2.07760100
H       1.46003400      3.39614100      4.37861300
H       2.14342200      1.02660100      4.70962400
H       2.38643300     -0.47503500      2.77099400
H      -0.24668000      5.44177800     -1.74341500
H      -1.58656900      5.19418300      0.33158600
H      -2.26905700      2.95005500      1.11061900
H      -0.31694000      1.18409000     -2.28334700
H       0.37542200      3.42057400     -3.06160900
H      -3.90994000      1.94832000     -1.06739500
H      -2.97751700     -2.24126300     -1.01412400
H      -5.11385800     -2.72684700     -2.15896400
H      -6.02554600      1.46356700     -2.22800300
H      -4.34049100     -0.39922500      1.31021100
H      -5.05981300     -0.25486900      3.66606000
H      -3.51175800      0.62801700      5.39512000
H      -1.21951900      1.35458800      4.74004000
H      -0.49394800      1.18302600      2.39727600
C      -1.10117300     -2.80261300      0.98081900
C      -0.03939600     -2.16471400      1.66242200
H      -2.10396000     -2.42281800      1.18603300
H       0.87239200     -2.72457200      1.86674500
H      -0.24969200     -1.36421600      2.36796100
C      -1.06587200     -4.26258700      0.61012800
H      -1.48792000     -4.87746500      1.41908000
H      -0.03817600     -4.59479800      0.43028300
H      -1.64422100     -4.46827700     -0.29745900
C      -7.00089000     -0.95535500     -3.01877300
H      -7.77752700     -0.22280100     -2.77685200
H      -6.84107200     -0.91560500     -4.10380700
H      -7.38318400     -1.95316200     -2.78193200
C       3.95917900      2.94426500     -4.96902400
H       4.13323000      4.00233300     -4.74949100
H       4.91100100      2.52065800     -5.31414800
H       3.25328400      2.87791900     -5.80311400
