    89
 Generated by Multiwfn
C       3.53453300      2.16030000     -3.83791100
C       3.46989900      2.82921700     -2.62259900
C       2.98520700      2.16355500     -1.49752000
C       2.55615800      0.83808500     -1.55914100
C       2.69992700      0.15476500     -2.78722000
C       3.15909900      0.82142200     -3.92403700
P       1.83693700     -0.11523400     -0.15242400
C       3.30351800     -2.48554000      0.41215900
C       3.33745500     -1.09687700      0.29495100
C       4.54934000     -0.42872900      0.51429700
C       5.69672900     -1.13565300      0.85317300
C       5.65132600     -2.52467400      0.97309500
C       4.45438200     -3.19692600      0.74953200
C       1.81414600      1.08652500      1.24225100
C       1.28554300      2.38047200      1.12306500
C       1.16798000      3.20806800      2.23710900
C       1.54776000      2.75338800      3.49715900
C       2.04698400      1.45943600      3.63319500
C       2.18293500      0.63714900      2.51848200
Rh     -0.16487500     -1.33632700     -0.43210500
C      -0.68032600      4.47837600     -1.48737500
C      -1.53816300      4.39220100     -0.39350600
C      -1.98958600      3.14491200      0.04768900
C      -1.52308900      1.96648500     -0.56780600
C      -0.67847900      2.08806100     -1.67483200
C      -0.26485300      3.32879200     -2.15050500
P      -1.87005100      0.25266100     -0.00349100
C      -4.44103900      0.85792000     -1.01137000
C      -3.45488400     -0.12391000     -0.85316400
C      -3.70202600     -1.41808800     -1.31926300
C      -4.91223000     -1.72656600     -1.93697600
C      -5.88447200     -0.74383700     -2.09748000
C      -5.64640300      0.54898100     -1.63264400
C      -2.39213200      0.35405900      1.75014200
C      -3.62953500     -0.13012000      2.18078400
C      -3.96213600     -0.10632400      3.53450700
C      -3.06628400      0.40298300      4.46972000
C      -1.82541500      0.87749300      4.04587500
C      -1.48637700      0.84105700      2.69896700
H       0.79484400     -2.54677200     -0.76347600
C      -0.55766000     -1.47147600     -2.25591500
O      -0.72588800     -1.60843600     -3.39574400
H       3.89594100      2.66889400     -4.72754000
H       3.79070200      3.86359500     -2.54221700
H       2.94548200      2.69437600     -0.55349300
H       3.24373000      0.29829700     -4.86990000
H       2.37001100     -3.00659400      0.22483800
H       4.59348700      0.65295300      0.41719000
H       6.62916200     -0.60322000      1.02070700
H       6.54846700     -3.07846200      1.23658900
H       0.94419200      2.74761400      0.16283600
H       0.76132700      4.20812700      2.11198600
H       1.44991700      3.39771600      4.36651100
H       2.33735400      1.08603400      4.61149900
H       2.57857600     -0.36650000      2.64202900
H      -0.34354600      5.45633400     -1.82059800
H      -1.87150500      5.29886100      0.09960000
H      -0.30165000      1.18247000     -2.14039600
H       0.40806100      3.38636000     -2.99977500
H      -4.27023500      1.86158000     -0.63469100
H      -2.93318000     -2.17638600     -1.20085000
H      -5.08990900     -2.73576100     -2.29853500
H      -6.82614600     -0.98223600     -2.58460700
H      -4.34417000     -0.51560900      1.46015900
H      -4.92896700     -0.48550500      3.85484800
H      -3.32931500      0.42334400      5.52392400
H      -1.11028200      1.27038400      4.76367200
H      -0.51562000      1.20169000      2.38071900
C      -1.17516200     -2.75764800      0.86878600
C      -0.12322000     -2.13123600      1.58255900
H      -2.18417600     -2.40038400      1.08409100
H       0.78670600     -2.69453300      1.78371200
H      -0.34801100     -1.36349600      2.31885400
C      -1.12381000     -4.20772700      0.46031200
H      -1.54352400     -4.84825600      1.25066600
H      -0.09218000     -4.52579200      0.27639600
H      -1.69633700     -4.39605000     -0.45514900
H       4.41125500     -4.27948000      0.83524900
H      -6.40268300      1.31979300     -1.75460100
O       2.39963700     -1.15897100     -2.76259500
C       2.47573200     -1.90074700     -3.95966100
H       3.50067600     -1.91832100     -4.35016500
H       2.16639200     -2.91286300     -3.69829900
H       1.79429900     -1.49985000     -4.71881900
O      -2.88609400      2.99964800      1.04724800
C      -3.14558200      4.09493900      1.89655900
H      -3.69129800      4.89165500      1.37574900
H      -3.76267100      3.70020300      2.70458800
H      -2.21522900      4.50000100      2.31279800
