    87
 Generated by Multiwfn
C       3.04449500      1.86152100     -4.11859100
C       3.34845600      2.54614000     -2.95075400
C       3.13316500      1.97369400     -1.68869900
C       2.52358400      0.70582500     -1.58715200
C       2.23152500      0.03710000     -2.78346400
C       2.50205600      0.58382300     -4.03109900
P       1.91179200     -0.23146200     -0.09772000
C       3.23959600     -2.69373300      0.36159900
C       3.36933000     -1.30569700      0.27433600
C       4.63220900     -0.73183000      0.47716300
C       5.73192500     -1.53419300      0.76158600
C       5.59215200     -2.91834000      0.84864200
C       4.34296500     -3.49564600      0.64749500
C       1.93533200      0.94796400      1.29657600
C       1.44694000      2.25072200      1.15070700
C       1.35287100      3.09802400      2.25041100
C       1.71809400      2.64830200      3.51686800
C       2.18456600      1.34415100      3.67411100
C       2.29689800      0.50032200      2.57287700
Rh     -0.14427300     -1.38499700     -0.35882600
C      -0.41258600      4.42450200     -1.49890200
C      -1.05652000      4.34492200     -0.26555600
C      -1.51336400      3.11883500      0.21120400
C      -1.33364600      1.96038100     -0.54942800
C      -0.69100400      2.04799300     -1.79052300
C      -0.23652000      3.27335500     -2.26522500
P      -1.79264200      0.28504900      0.02742800
C      -4.26918500      0.87496400     -1.36528200
C      -3.35062900     -0.08670600     -0.90524500
C      -3.58223300     -1.42398000     -1.24455200
C      -4.67210000     -1.80276400     -2.02255000
C      -5.53963600     -0.83637900     -2.51726400
C      -5.33010100      0.49909200     -2.19281500
C      -2.36545300      0.49138600      1.74823200
C      -3.67499900      0.19976900      2.13971200
C      -4.04277600      0.29201400      3.47939500
C      -3.11245400      0.68517700      4.43810500
C      -1.80590300      0.97956300      4.05400000
C      -1.43057500      0.87114200      2.71943400
H       0.75569700     -2.64023600     -0.68931200
C      -0.62350600     -1.59974200     -2.14993100
O      -0.84142600     -1.79667300     -3.27256400
H       3.78280300      3.53935900     -3.00321400
H       1.75486100     -0.93617200     -2.72579400
H       2.26834800     -3.14789300      0.19701600
H       4.75050900      0.34543700      0.41825000
H       6.70418800     -1.07341700      0.91533300
H       6.45376300     -3.54232400      1.07094700
H       4.22031000     -4.57356900      0.71092700
H       1.13896200      2.61363100      0.17643400
H       0.97509600      4.10722300      2.11177900
H       1.63676000      3.30728500      4.37683200
H       2.46923700      0.98142400      4.65803000
H       2.67259600     -0.51016300      2.70457300
H      -0.04117600      5.37976300     -1.85929900
H      -1.19461800      5.23928500      0.33646300
H      -2.01006900      3.06058000      1.17316200
H      -0.52000700      1.14711000     -2.37255400
H       0.27681300      3.32152900     -3.22088500
H      -2.86990700     -2.17239300     -0.91186000
H      -6.00529100      1.26408700     -2.56483300
H      -4.41299300     -0.08590100      1.39737200
H      -5.06410600      0.06410100      3.77160100
H      -3.40470400      0.76039300      5.48194400
H      -1.06842700      1.28535100      4.79090300
H      -0.40761900      1.08620900      2.43054400
C      -1.16032300     -2.71875900      1.04168800
C      -0.06479700     -2.10398300      1.69088300
H      -2.14666900     -2.31092900      1.27291300
H       0.83402300     -2.68796000      1.88231500
H      -0.23609400     -1.29568400      2.39721700
C      -1.17372900     -4.18266200      0.68498900
H      -1.58971900     -4.77788600      1.51137700
H      -0.16061100     -4.54451600      0.48098000
H      -1.78205700     -4.38333700     -0.20429800
H      -6.37564500     -1.11573900     -3.15165100
H       3.23430700      2.32080600     -5.08413400
H       2.26472600      0.01945800     -4.92824900
H      -4.82284400     -2.85176500     -2.26049100
C       3.68486900      2.77580700     -0.55831100
O       4.44253600      2.37861800      0.29896000
O       3.32571800      4.06866500     -0.63975400
H       3.77945900      4.51751500      0.09600400
C      -4.26146700      2.29934400     -0.92478100
O      -4.38812900      2.65770400      0.22417900
O      -4.18480200      3.15334500     -1.95422300
H      -4.21332100      4.04821300     -1.57010900
