    81
 Generated by Multiwfn
C       3.32833100      1.59821400     -4.11399100
C       3.32648900      2.43031800     -2.99871900
C       2.92813000      1.94413000     -1.75544200
C       2.50048100      0.62133500     -1.61558300
C       2.51432300     -0.21048800     -2.74347600
C       2.93212700      0.26901000     -3.97936800
P       1.87695200     -0.17402800     -0.07507800
C       3.21438700     -2.57636600      0.46714000
C       3.36340100     -1.18495200      0.40713200
C       4.64388600     -0.68223900      0.69846800
C       5.70295400     -1.52489700      1.02839700
C       5.51544900     -2.90124500      1.07626100
C       4.26253500     -3.42960700      0.79320700
C       1.86706300      1.07902300      1.26013000
C       1.45610800      2.40502600      1.07826100
C       1.38342600      3.27785900      2.16183900
C       1.69755800      2.83892800      3.44474700
C       2.07164000      1.51007700      3.64052800
C       2.15229700      0.63874200      2.56094300
Rh     -0.13212900     -1.38747300     -0.39130200
C      -0.75864900      4.51388300     -1.30774700
C      -1.50228600      4.34834100     -0.14143100
C      -1.84257900      3.07163700      0.29979400
C      -1.42667800      1.94476700     -0.41490700
C      -0.68943900      2.11957400     -1.59227600
C      -0.36115900      3.39564200     -2.03878400
P      -1.81556500      0.21027800      0.04646800
C      -4.28306700      0.99708000     -1.07082400
C      -3.34631900     -0.03273300     -0.93669500
C      -3.59016600     -1.26360800     -1.55059200
C      -4.75859700     -1.46714000     -2.27725600
C      -5.69436100     -0.44251400     -2.39533900
C      -5.45321100      0.79081200     -1.79285500
C      -2.33425300      0.34431100      1.81449600
C      -3.43521100     -0.22747500      2.46805800
C      -3.61586400     -0.08642600      3.84564600
C      -2.69406200      0.61287400      4.61068300
C      -1.57507500      1.16437800      3.99492700
C      -1.40531400      1.02066600      2.62609600
H       0.79032700     -2.61681600     -0.77036100
C      -0.49238100     -1.45162800     -2.22504500
O      -0.62475200     -1.54326400     -3.37263800
H       3.64718900      3.46482700     -3.08862100
H       2.18759900     -1.24274300     -2.64995100
H       2.23691800     -2.98718100      0.23932000
H       6.67391600     -1.09252900      1.24495100
H       4.09362500     -4.50192400      0.82466600
H       1.16734500      2.76504900      0.09877400
H       1.06519900      4.30292400      1.99405900
H       1.64318500      3.52287700      4.28722700
H       2.30573800      1.14935100      4.63836500
H       2.45141500     -0.39232000      2.72794300
H      -0.49046700      5.51089200     -1.64609700
H      -1.82048800      5.21584900      0.43041100
H      -2.41709800      2.95646700      1.21388100
H      -0.34613700      1.25099800     -2.14664200
H       0.22666600      3.50973900     -2.94482000
H      -2.86768200     -2.06579400     -1.43358500
H      -6.17702800      1.59552300     -1.88787100
H      -4.48563600     -0.53996800      4.30842100
H      -0.82660600      1.70050600      4.56925500
H      -0.52164500      1.44499000      2.16318900
C      -1.20479700     -2.83139100      0.84807000
C      -0.17417000     -2.23151200      1.61011200
H      -2.21981200     -2.47158300      1.02060700
H       0.72119900     -2.80926400      1.83438100
H      -0.41024800     -1.46747000      2.34767700
C      -1.14835800     -4.26929600      0.40195200
H      -1.61284700     -4.92357400      1.15466800
H      -0.11323800     -4.59662500      0.25785000
H      -1.68048700     -4.42404000     -0.54300700
H      -6.60801400     -0.60145200     -2.96166200
H       3.64097600      1.98066700     -5.08169000
H       2.93635400     -0.39466000     -4.83945400
H      -4.93908500     -2.42932700     -2.74850600
H      -4.10002300      1.96321500     -0.60961000
H       2.96796100      2.60167200     -0.89630300
H       6.34899200     -3.54828800      1.33367000
H      -2.84807500      0.71234300      5.68114400
Br      5.07034700      1.16328500      0.68635700
Br     -4.77068100     -1.26865300      1.61138900
