    81
 Generated by Multiwfn
C       3.22991200      2.11561400     -3.86335500
C       3.63037100      2.55907400     -2.60722200
C       3.24890100      1.83944100     -1.48010200
C       2.45271100      0.69428800     -1.59118800
C       2.08469600      0.26050000     -2.86813500
C       2.47025000      0.95902200     -4.00689200
P       1.86010200     -0.29621300     -0.15469600
C       3.36291200     -2.67364400      0.19866600
C       3.37567700     -1.27942200      0.22910800
C       4.57435600     -0.62794300      0.54904200
C       5.72857700     -1.34596600      0.82971100
C       5.68575700     -2.73768800      0.79056600
C       4.51220700     -3.41005500      0.47694000
C       1.90594800      0.89930600      1.23572700
C       1.52989600      2.23981300      1.09126400
C       1.41730400      3.07598500      2.19849300
C       1.67140600      2.56468900      3.46593700
C       2.05654400      1.23777500      3.63906200
C       2.17135600      0.41513500      2.52495000
Rh     -0.14677400     -1.49128200     -0.37238100
C      -0.42271300      4.35474100     -1.44354900
C      -1.12953400      4.27914500     -0.24715600
C      -1.57582800      3.03914600      0.20296900
C      -1.31488400      1.88082600     -0.53319500
C      -0.63327300      1.98920800     -1.75051400
C      -0.18186800      3.21881900     -2.21258200
P      -1.75416100      0.19112700      0.01838200
C      -4.18074200      0.96117500     -1.21315700
C      -3.33813900     -0.09802900     -0.85981900
C      -3.74104200     -1.40755600     -1.13836500
C      -4.96211400     -1.66126700     -1.75434500
C      -5.78021800     -0.59087500     -2.09924400
C      -5.40012400      0.72193700     -1.83630400
C      -2.31813600      0.43021700      1.74305700
C      -3.61585500      0.12601000      2.16339400
C      -3.98356100      0.27899200      3.49776400
C      -3.04831800      0.74924300      4.41263300
C      -1.74907000      1.05755400      4.01954700
C      -1.39077700      0.88277200      2.68941400
H       0.75881700     -2.74709900     -0.69024400
C      -0.69385900     -1.77402200     -2.13917200
O      -0.96925600     -2.02157600     -3.23733000
H       4.22756600      3.45925300     -2.50990300
H       1.46943300     -0.62835600     -2.97230900
H       2.44077500     -3.19186300     -0.04600100
H       4.61463400      0.45624000      0.58981300
H       6.65217300     -0.83383100      1.07686900
H       4.49129300     -4.49422500      0.45109000
H       1.30524400      2.64519300      0.11064700
H       1.11528300      4.10995500      2.07263900
H       2.46454800     -0.62107500      2.66559700
H      -1.31896800      5.17615300      0.33277900
H      -2.10790600      2.98033600      1.14746100
H      -0.42355400      1.09588100     -2.33004100
H       0.37057800      3.28910100     -3.14338900
H      -3.08623000     -2.23476700     -0.87953300
H      -6.04829900      1.54517600     -2.11651700
H      -4.35479100     -0.22824900      1.45152200
H      -4.99150400      0.04136800      3.82024200
H      -1.02701500      1.43051300      4.73833600
H      -0.37773700      1.11299700      2.38264000
C      -1.15375900     -2.81972900      1.04661900
C      -0.05043800     -2.20672500      1.68145100
H      -2.13680800     -2.40829100      1.28447400
H       0.85078600     -2.79224600      1.85865800
H      -0.21192300     -1.39612800      2.38846100
C      -1.17456000     -4.28175300      0.68458200
H      -1.59011000     -4.87594900      1.51142800
H      -0.16399400     -4.64753300      0.47600000
H      -1.78723800     -4.47567900     -0.20261200
H       2.17216400      0.61656400     -4.99199400
H      -5.27003200     -2.67828800     -1.97153000
H      -3.88509000      1.98583100     -1.00727300
H       3.56205200      2.20309600     -0.50662500
Br      7.25115700     -3.72298700      1.17452100
Br      3.71494500      3.10706500     -5.39566000
Br      0.23789200      6.02390500     -2.02931300
Br     -7.43568500     -0.92306800     -2.94537000
Br     -3.54737200      0.97496000      6.22018600
H       2.25465400      0.85004300      4.63255000
Br      1.45753900      3.67345200      4.98043900
