   117
 Generated by Multiwfn
C       3.47037400      2.18464300     -3.83105600
C       3.72535700      2.68152400     -2.55696700
C       3.21338900      2.04705400     -1.43109100
C       2.42783200      0.89865700     -1.56526400
C       2.16920500      0.40700300     -2.84414100
C       2.69008200      1.04457600     -3.96608300
P       1.77943100     -0.08217900     -0.14802100
C       3.24153600     -2.43585000      0.38927000
C       3.29865200     -1.05295800      0.26608700
C       4.52204700     -0.40840900      0.48672500
C       5.65081900     -1.13974800      0.82885900
C       4.37698200     -3.16680000      0.73655000
C       1.81016000      1.12904100      1.22808800
C       1.31886800      2.43038100      1.07071000
C       1.28233200      3.29931300      2.15660900
C       1.73135800      2.89500200      3.41046200
C       2.19667900      1.59746300      3.57201300
C       2.23063300      0.71731200      2.49505700
Rh     -0.16997100     -1.31439300     -0.40930800
C      -1.40683200      4.57401300     -1.64177800
C      -2.09333500      4.36047800     -0.45242000
C      -2.22994300      3.07626300      0.06420500
C      -1.67010100      1.98909100     -0.60996500
C      -0.97458700      2.20302100     -1.80370400
C      -0.85266800      3.49050100     -2.31614100
P      -1.88223900      0.25022900     -0.07283500
C      -4.34413800      0.74157300     -1.41305800
C      -3.39999800     -0.20590200     -1.01084900
C      -3.63159000     -1.55336200     -1.28588900
C      -4.78799800     -1.94833300     -1.95088300
C      -5.72440900     -1.00633300     -2.35719100
C      -5.49409200      0.33955100     -2.08456300
C      -2.55271200      0.40839600      1.62855100
C      -3.78925000     -0.14542300      1.96741700
C      -4.24871800     -0.09475500      3.27924600
C      -3.49072000      0.51569000      4.27016400
C      -2.25968000      1.06891400      3.93637000
C      -1.78173200      1.00863200      2.62942500
H       0.77150500     -2.54257500     -0.71019600
C      -0.62892100     -1.61922200     -2.20832700
O      -0.84279900     -1.86421700     -3.31575500
H       3.42829100      2.46250500     -0.45185700
H       1.55008400     -0.47697900     -2.96396100
H       2.30035700     -2.94716900      0.21840500
H       4.60189600      0.67037100      0.40747900
H       0.97388900      2.77587800      0.10170600
H       2.59394800     -0.29405700      2.64803400
H      -2.77308200      2.93267200      0.99158800
H      -0.53528800      1.36301700     -2.33373800
H      -4.19357200      1.79563000     -1.20398200
H      -2.89911000     -2.29401100     -0.98069800
H      -4.40193600     -0.62492500      1.21182000
H      -0.81228000      1.43777000      2.39043200
C      -1.14700300     -2.70293500      0.98891900
C      -0.11123300     -2.01453500      1.65720600
H      -2.16261000     -2.35506600      1.18840600
H       0.81083900     -2.54512600      1.88814400
H      -0.34984900     -1.21142500      2.35130300
C      -1.06571000     -4.16538100      0.63838800
H      -1.47042300     -4.77247400      1.46028400
H      -0.03017000     -4.47508800      0.46557100
H      -1.64217800     -4.40459400     -0.26161700
C       5.58604000     -2.52702700      0.95941200
H       6.46561900     -3.09391600      1.24394600
H       3.86349700      2.68859000     -4.70628200
H      -1.30649500      5.57746000     -2.04308300
H       1.69844300      3.57597100      4.25239400
H      -3.85042600      0.55599700      5.29156900
H      -6.62776900     -1.31536400     -2.87120000
C      -5.60541300     -0.65724400      3.60050000
F      -5.85717400     -1.75908000      2.87866600
F      -6.57291400      0.22939600      3.32185500
F      -5.71335300     -0.97740100      4.89606700
C      -1.40852500      1.70698400      4.99756900
F      -1.00149000      2.93030700      4.62225400
F      -0.30648800      0.97523200      5.23195200
F      -2.06159200      1.83401600      6.15739300
C       2.72233900      1.13217900      4.90148600
F       2.31199400     -0.11516200      5.17396700
F       2.32702400      1.92744300      5.90170900
F       4.06478400      1.11459200      4.90359800
C       0.66847000      4.66110100      2.00515000
F      -0.63873800      4.62345400      2.32812500
F       0.75720200      5.11043600      0.74572400
F       1.24668200      5.56109600      2.80750000
C       2.38220300      0.47179800     -5.32118500
F       3.02146400     -0.69285300     -5.50823600
F       2.74714600      1.29938200     -6.30838600
F       1.07015000      0.22701200     -5.45152100
C       4.49452500      3.96101200     -2.38768100
F       3.66823300      5.01596900     -2.32046800
F       5.33471500      4.17286900     -3.40863100
F       5.21482500      3.95014700     -1.25500200
C      -4.97005400     -3.40671600     -2.26562500
F      -4.22514800     -3.76845700     -3.31959300
F      -6.24547500     -3.69936800     -2.54950400
F      -4.59006000     -4.17459900     -1.23140700
C      -6.46933500      1.37705100     -2.56726000
F      -7.71636600      0.89051500     -2.62324700
F      -6.15008200      1.80481700     -3.79759700
F      -6.48031300      2.45015200     -1.76277600
C      -2.71102800      5.54316000      0.24295000
F      -1.80512900      6.50605900      0.45836400
F      -3.25012200      5.20746300      1.42044600
F      -3.68290900      6.07871800     -0.51259900
C      -0.08377900      3.74312600     -3.58283300
F       0.04796400      2.63061700     -4.31641300
F       1.14970600      4.20046800     -3.31078600
F      -0.68791700      4.66803100     -4.34017700
C       6.96890300     -0.44217600      1.01731000
F       7.70203100     -0.48250500     -0.10542100
F       7.69288100     -1.02102500      1.98562400
F       6.80319900      0.84808000      1.34131000
C       4.25527900     -4.66061000      0.83653300
F       4.16286700     -5.22105900     -0.37844800
F       3.14763000     -5.00779800      1.51370500
F       5.30617400     -5.20895700      1.45855200
