74
LPP4 3ee; extracted from final Gaussian last_standard_orientation
C  -1.6267720000 -0.0912990000  2.3075300000
H  -0.8635870000  0.6559530000  2.5420130000
H  -2.5357460000  0.2461600000  2.8179390000
C  -1.2108260000 -1.4964500000  2.7729220000
H  -1.1257190000 -2.1747350000  1.9117980000
H  -2.0191280000 -1.9085200000  3.3874460000
C   0.0995350000 -1.5713840000  3.5574810000
H   0.1268850000 -0.7855620000  4.3258310000
H   0.1080710000 -2.5265360000  4.0981070000
P  -1.8672640000  0.0032510000  0.4769390000
P   1.9304640000  0.0335400000  0.3798830000
Rh -0.0029950000 -0.2661720000 -0.8586640000
H  -0.0913680000  1.3203160000 -0.8051690000
C   0.1181850000 -2.1638200000 -0.9228230000
O   0.2076120000 -3.3156190000 -0.9607230000
C  -2.6716960000  1.6510350000  0.3491090000
C  -1.9140420000  2.7821270000  0.6812870000
C  -3.9904970000  1.8254310000 -0.0765150000
C  -2.4664220000  4.0547350000  0.6004660000
H  -0.8772870000  2.6661120000  0.9890980000
C  -4.5392010000  3.1037770000 -0.1719030000
H  -4.5930460000  0.9617210000 -0.3410780000
C  -3.7822980000  4.2199770000  0.1683980000
H  -1.8660120000  4.9207400000  0.8664630000
H  -5.5636190000  3.2232540000 -0.5144240000
H  -4.2117410000  5.2153070000  0.0949490000
C  -3.2716210000 -1.1533000000  0.2288970000
C  -3.3202050000 -1.9169100000 -0.9396110000
C  -4.3074340000 -1.2832380000  1.1630120000
C  -4.3769890000 -2.7935770000 -1.1746700000
H  -2.5161160000 -1.8143550000 -1.6615870000
C  -5.3610310000 -2.1617100000  0.9328340000
H  -4.3005830000 -0.6903550000  2.0732250000
C  -5.3977810000 -2.9192070000 -0.2371830000
H  -4.3978700000 -3.3812200000 -2.0883270000
H  -6.1560010000 -2.2552940000  1.6677420000
H  -6.2208680000 -3.6059350000 -0.4147540000
C   3.3048140000 -1.1200650000 -0.0264380000
C   3.5465870000 -1.3853350000 -1.3796530000
C   4.1255470000 -1.7257700000  0.9307610000
C   4.5834770000 -2.2264680000 -1.7671640000
H   2.9038710000 -0.9282010000 -2.1255310000
C   5.1569350000 -2.5796680000  0.5440470000
H   3.9680750000 -1.5414190000  1.9884840000
C   5.3899250000 -2.8310630000 -0.8045070000
H   4.7567850000 -2.4176000000 -2.8227310000
H   5.7786300000 -3.0485060000  1.3021240000
H   6.1937640000 -3.4975690000 -1.1046300000
C   2.7970400000  1.6589080000  0.2615820000
C   2.1662840000  2.7797490000 -0.2823290000
C   4.1003130000  1.7964450000  0.7583830000
C   2.8127450000  4.0139940000 -0.3159750000
H   1.1652770000  2.6732050000 -0.6903660000
C   4.7478780000  3.0262930000  0.7222190000
H   4.6213630000  0.9317810000  1.1613500000
C   4.1036530000  4.1409360000  0.1871440000
H   2.3059130000  4.8746050000 -0.7444560000
H   5.7600480000  3.1139020000  1.1079970000
H   4.6108900000  5.1014230000  0.1568400000
C  -0.8346430000  0.0173710000 -2.8616010000
H  -1.2760720000 -0.9193870000 -3.2063720000
C   0.5788580000  0.0991010000 -2.9177890000
H   1.1419810000 -0.7341270000 -3.3331610000
H   1.0547220000  1.0710290000 -3.0397680000
C  -1.7215070000  1.2172160000 -3.0660320000
H  -1.9472020000  1.3555670000 -4.1339420000
H  -1.2386830000  2.1282270000 -2.6967710000
H  -2.6749160000  1.1182050000 -2.5370270000
C   1.3709380000 -1.5186510000  2.7058030000
H   1.2330330000 -2.1942940000  1.8500470000
H   2.1879580000 -1.9562740000  3.2909080000
C   1.8198280000 -0.1255380000  2.2225330000
H   2.7840970000  0.1535150000  2.6645210000
H   1.1226290000  0.6578120000  2.5352570000
