69
LPP8 3ee; extracted from final Gaussian last_standard_orientation
C   2.1292860000  1.6746900000  0.0813120000
C   1.9390010000  2.6080200000  1.1032630000
H   1.4375090000  2.3148400000  2.0204200000
C   2.3888890000  3.9183320000  0.9507880000
H   2.2275030000  4.6378490000  1.7489370000
C   3.0430760000  4.3040640000 -0.2150980000
C   3.2417980000  3.3764480000 -1.2372390000
H   3.7464520000  3.6720100000 -2.1528070000
C   2.7788050000  2.0739800000 -1.0944270000
H   2.9135840000  1.3571030000 -1.9014140000
C  -2.3191740000  1.5180280000  0.0237140000
C  -2.0291540000  2.5186220000  0.9541830000
H  -1.4058200000  2.2957590000  1.8147660000
C  -2.5354170000  3.8059060000  0.7821980000
H  -2.2980890000  4.5775280000  1.5095390000
C  -3.3417440000  4.1018350000 -0.3121840000
C  -3.6370480000  3.1067290000 -1.2441200000
H  -4.2613630000  3.3323020000 -2.1042200000
C  -3.1220710000  1.8265590000 -1.0829560000
H  -3.3374260000  1.0576040000 -1.8217750000
C   3.0390590000 -1.0092830000  0.5237140000
C   2.9449440000 -2.4056730000  0.5058150000
H   1.9968180000 -2.8674460000  0.2430170000
C   4.0531180000 -3.1888720000  0.8082340000
H   3.9689400000 -4.2720980000  0.7918870000
C   5.2715210000 -2.5858890000  1.1181490000
C   5.3742300000 -1.1974230000  1.1296210000
H   6.3218790000 -0.7225340000  1.3690770000
C   4.2627100000 -0.4095110000  0.8373040000
H   4.3479330000  0.6732520000  0.8533700000
C   0.6350150000 -0.1343470000  1.7710850000
C   1.3104050000 -0.1652870000  2.9948510000
H   2.3971240000 -0.1438600000  3.0085920000
C   0.6003040000 -0.2385500000  4.1888210000
H   1.1337140000 -0.2660690000  5.1348900000
C  -3.0721060000 -1.2225860000  0.3846240000
C  -2.9598140000 -2.5868350000  0.0963960000
H  -2.0268570000 -2.9614390000 -0.3172750000
C  -4.0316930000 -3.4437870000  0.3261060000
H  -3.9346870000 -4.5021300000  0.0998510000
C  -5.2304660000 -2.9435800000  0.8308970000
C  -5.3540000000 -1.5836790000  1.1066150000
H  -6.2892850000 -1.1883570000  1.4936500000
C  -4.2801590000 -0.7250800000  0.8862970000
H  -4.3837780000  0.3357960000  1.0974440000
C  -0.7685800000 -0.1884490000  1.7511610000
C  -1.4728070000 -0.2688630000  2.9555830000
H  -2.5576460000 -0.3289020000  2.9410390000
C  -0.7926450000 -0.2902730000  4.1689490000
H  -1.3489510000 -0.3584160000  5.0996550000
P   1.5227780000 -0.0498040000  0.1592250000
P  -1.6056840000 -0.1635100000  0.1106900000
Rh  0.0059410000 -0.6815330000 -1.4447590000
H   0.0527090000 -2.0639170000 -0.6116790000
C  -0.0684550000  0.9138610000 -2.4742230000
O  -0.1218390000  1.8811160000 -3.0994660000
C  -0.6307890000 -1.9358240000 -3.0724380000
H  -1.2198230000 -1.3837060000 -3.8018500000
H  -1.1020790000 -2.8533540000 -2.7240700000
C   0.7896260000 -1.8521170000 -3.0923430000
H   1.2301010000 -1.1829300000 -3.8333660000
C   1.6664170000 -3.0277340000 -2.7504190000
H   2.6131260000 -2.7168440000 -2.2955720000
H   1.1627870000 -3.6967980000 -2.0437160000
H  -6.0702820000 -3.6115310000  1.0016300000
H   6.1399430000 -3.1980200000  1.3455320000
H  -3.7361150000  5.1054990000 -0.4440660000
H   3.3930480000  5.3259310000 -0.3316760000
H   1.9074930000 -3.6079520000 -3.6540640000
