80
LPP7 3ee; extracted from final Gaussian last_standard_orientation
Rh -0.2215030000 -1.0015330000 -1.1261780000
H   0.0110060000  0.4125680000 -1.8537090000
P  -1.8244670000  0.1866790000  0.0075960000
C  -1.6355450000  2.0233400000 -0.0201650000
C  -0.4982740000  2.5781320000  0.8196480000
C   0.9473400000  2.2578490000  0.4231300000
C   1.5734710000  1.0388510000  1.0903760000
P   1.7195720000 -0.4196850000 -0.0355260000
H  -1.4911180000  2.3220020000 -1.0641410000
H  -2.5578910000  2.4909320000  0.3442800000
H  -0.6441180000  2.2949110000  1.8741790000
H   1.0328050000  2.2085450000 -0.6734690000
H   0.9781840000  0.7447970000  1.9616530000
H   2.5717380000  1.3221470000  1.4416980000
O  -0.5535520000  3.9910700000  0.6945720000
O   1.6268730000  3.4033090000  0.9157640000
C   0.7714480000  4.5153610000  0.7427510000
C   0.9254580000  5.4205290000  1.9487020000
C   1.0576420000  5.2219380000 -0.5736240000
H   0.6738160000  4.8649150000  2.8562830000
H   0.2581340000  6.2826850000  1.8607980000
H   1.9562150000  5.7793070000  2.0261660000
H   0.9881800000  4.5130470000 -1.4043900000
H   2.0626490000  5.6543850000 -0.5624910000
H   0.3297300000  6.0216470000 -0.7404950000
C  -3.5312380000 -0.0434490000 -0.6154570000
C  -4.0686180000 -1.3350640000 -0.5328550000
C  -5.3365500000 -1.6071250000 -1.0291690000
C  -6.0830740000 -0.5949100000 -1.6339490000
C  -5.5532040000  0.6869270000 -1.7318290000
C  -4.2840160000  0.9643730000 -1.2229590000
C  -2.0578170000 -0.1181000000  1.8057240000
C  -1.1492300000 -0.9193110000  2.5009600000
C  -1.2806040000 -1.1129800000  3.8747130000
C  -2.3266230000 -0.5077810000  4.5646020000
C  -3.2452940000  0.2860350000  3.8772100000
C  -3.1135820000  0.4782600000  2.5064410000
C   2.4517750000 -1.6888620000  1.0625840000
C   2.6772630000 -1.5048900000  2.4299690000
C   3.1882140000 -2.5447590000  3.2066970000
C   3.4909370000 -3.7710450000  2.6245860000
C   3.2783180000 -3.9599810000  1.2587880000
C   2.7555210000 -2.9303310000  0.4871280000
C   3.1651140000  0.0979920000 -1.0435630000
C   4.4586180000  0.0925180000 -0.5079550000
C   5.5347350000  0.5410180000 -1.2660580000
C   5.3303450000  1.0053500000 -2.5648890000
C   4.0469540000  1.0150470000 -3.1035160000
C   2.9693650000  0.5580870000 -2.3477650000
H  -3.4822250000 -2.1305930000 -0.0784030000
H  -5.7421560000 -2.6121210000 -0.9511680000
H  -7.0717250000 -0.8088170000 -2.0301680000
H  -6.1257130000  1.4797750000 -2.2055150000
H  -3.8879910000  1.9711010000 -1.3141820000
H  -0.3354690000 -1.3966740000  1.9620170000
H  -0.5647580000 -1.7400720000  4.3992030000
H  -2.4327530000 -0.6574070000  5.6355170000
H  -4.0682370000  0.7528980000  4.4115030000
H  -3.8415180000  1.0866970000  1.9748370000
H   2.4607670000 -0.5522690000  2.9026580000
H   3.3535640000 -2.3892770000  4.2694200000
H   3.8893060000 -4.5794170000  3.2312650000
H   3.5112530000 -4.9155160000  0.7972350000
H   2.5705360000 -3.0839420000 -0.5738930000
H   4.6245770000 -0.2712040000  0.5031440000
H   6.5356300000  0.5280960000 -0.8431040000
H   6.1725520000  1.3545270000 -3.1560530000
H   3.8826270000  1.3716110000 -4.1168110000
H   1.9651500000  0.5476710000 -2.7615450000
C  -0.4967510000 -2.7115450000 -0.3482340000
O  -0.6720390000 -3.7654750000  0.0900510000
C   0.2083460000 -1.8440740000 -3.0744420000
H   0.5549920000 -2.8720410000 -2.9917260000
H   0.8532650000 -1.2064950000 -3.6761240000
C  -1.1791750000 -1.5522990000 -2.9993540000
H  -1.8556330000 -2.3871640000 -2.8086140000
C  -1.8066550000 -0.4382080000 -3.7956000000
H  -2.6621390000  0.0032750000 -3.2736210000
H  -1.0801930000  0.3588020000 -3.9895150000
H  -2.1699100000 -0.8118340000 -4.7646140000
