71
LPP3 3ee; extracted from final Gaussian last_standard_orientation
C   1.7800850000 -0.3983080000 -2.4220850000
H   1.7482400000 -1.4934220000 -2.4751580000
H   2.7509850000 -0.0979370000 -2.8348920000
C   0.6683630000  0.1936680000 -3.2934210000
H   0.7833600000  1.2848070000 -3.3347610000
H   0.8618200000 -0.1662180000 -4.3121250000
C  -0.7881140000 -0.1396960000 -2.9393850000
H  -0.8597260000 -1.1840110000 -2.6100450000
H  -1.3713950000 -0.0838180000 -3.8650190000
C  -1.4419740000  0.8089310000 -1.9171710000
H  -0.7972990000  1.6792190000 -1.7450400000
H  -2.3913750000  1.1913950000 -2.3099010000
P   1.7510670000 -0.0015890000 -0.6068390000
P  -1.7266190000  0.0427560000 -0.2582840000
Rh  0.1063210000 -1.0924940000  0.5793610000
H   0.1991460000  0.1471590000  1.5829070000
C   0.0735890000 -2.6451990000 -0.5096790000
O   0.1078360000 -3.6160770000 -1.1394560000
C   3.4596070000 -0.4676010000 -0.1350740000
C   4.3901990000  0.4415400000  0.3739120000
C   3.8103810000 -1.8215940000 -0.2209120000
C   5.6512180000  0.0061310000  0.7792550000
H   4.1297030000  1.4921040000  0.4606740000
C   5.0730320000 -2.2512990000  0.1687400000
H   3.0802530000 -2.5459990000 -0.5749400000
C   5.9980580000 -1.3370640000  0.6731540000
H   6.3631130000  0.7232150000  1.1793140000
H   5.3321290000 -3.3037990000  0.0915720000
H   6.9814370000 -1.6741680000  0.9888800000
C   1.7948100000  1.8328210000 -0.6202200000
C   0.9837940000  2.5625050000  0.2520800000
C   2.6010610000  2.5281100000 -1.5329490000
C   0.9649460000  3.9552400000  0.2085100000
H   0.3547220000  2.0294280000  0.9580290000
C   2.5869060000  3.9181550000 -1.5741360000
H   3.2508670000  1.9824530000 -2.2120120000
C   1.7642440000  4.6349670000 -0.7052760000
H   0.3149790000  4.5019440000  0.8859930000
H   3.2164290000  4.4433190000 -2.2873050000
H   1.7487150000  5.7208100000 -0.7437700000
C  -2.3343280000  1.4584390000  0.7400730000
C  -2.4952980000  1.2529150000  2.1159950000
C  -2.6223330000  2.7182750000  0.2077870000
C  -2.9412360000  2.2801940000  2.9388600000
H  -2.2460090000  0.2821430000  2.5364990000
C  -3.0572690000  3.7527650000  1.0356940000
H  -2.4977220000  2.9104960000 -0.8531250000
C  -3.2193820000  3.5365330000  2.4005080000
H  -3.0613420000  2.1047210000  4.0044940000
H  -3.2685570000  4.7296040000  0.6086750000
H  -3.5569660000  4.3437960000  3.0446530000
C  -3.2894330000 -0.8895360000 -0.5282280000
C  -3.3394780000 -2.2526910000 -0.2332720000
C  -4.4419890000 -0.2544850000 -1.0068410000
C  -4.5137160000 -2.9776090000 -0.4310330000
H  -2.4518920000 -2.7358870000  0.1650850000
C  -5.6143010000 -0.9752400000 -1.2021770000
H  -4.4288770000  0.8136760000 -1.2112090000
C  -5.6507190000 -2.3407870000 -0.9177930000
H  -4.5384400000 -4.0388310000 -0.1987620000
H  -6.5037520000 -0.4720580000 -1.5718420000
H  -6.5680930000 -2.9029980000 -1.0697230000
C   1.0514530000 -2.1465700000  2.2138900000
H   1.5126770000 -3.0610120000  1.8357020000
C  -0.3609460000 -2.1647860000  2.3941700000
H  -0.9234410000 -3.0765290000  2.2005860000
H  -0.7995760000 -1.5286550000  3.1615020000
C   1.9624490000 -1.3418070000  3.1043590000
H   2.3047530000 -1.9464470000  3.9578870000
H   1.4428500000 -0.4607120000  3.4961330000
H   2.8523530000 -0.9959460000  2.5682690000
