77
LPP5 3ee; extracted from final Gaussian last_standard_orientation
C  -0.7059310000 -0.0549630000  3.3635050000
H  -0.6980940000 -0.5452290000  4.3468840000
H  -0.6044670000 -0.8497610000  2.6144320000
C  -2.0479170000  0.6460610000  3.1677180000
H  -2.8599930000 -0.0845110000  3.2634160000
H  -2.1952450000  1.3811760000  3.9715560000
C  -2.1975690000  1.3796250000  1.8337500000
H  -1.4649850000  2.1906000000  1.7563370000
H  -3.1910940000  1.8420280000  1.7805420000
P   1.9864900000 -0.2213620000  0.5593510000
P  -2.0019670000  0.2979450000  0.3280960000
Rh -0.0079480000 -0.5168860000 -0.5614670000
H  -0.1491660000 -1.7295670000  0.4827650000
C   0.2466480000  0.8653700000 -1.8369220000
O   0.4153670000  1.6715020000 -2.6466490000
C   3.3378160000 -1.1271920000 -0.2963560000
C   3.9439630000 -2.2780160000  0.2133230000
C   3.7095180000 -0.6807550000 -1.5720450000
C   4.9073640000 -2.9613660000 -0.5299220000
H   3.6616720000 -2.6648860000  1.1877710000
C   4.6741380000 -1.3556950000 -2.3083210000
H   3.2335340000  0.2045970000 -1.9877200000
C   5.2771310000 -2.5023730000 -1.7888610000
H   5.3656090000 -3.8570010000 -0.1189660000
H   4.9546730000 -0.9896980000 -3.2923260000
H   6.0275190000 -3.0345570000 -2.3667740000
C   2.7244460000  1.4642050000  0.6259710000
C   1.9158540000  2.5845660000  0.4252860000
C   4.0817100000  1.6500650000  0.9156400000
C   2.4480060000  3.8691120000  0.5102160000
H   0.8623160000  2.4384160000  0.1978830000
C   4.6147670000  2.9318670000  1.0021510000
H   4.7255810000  0.7863030000  1.0621390000
C   3.7983390000  4.0440630000  0.7988960000
H   1.8080600000  4.7316820000  0.3450640000
H   5.6702690000  3.0644430000  1.2239840000
H   4.2172710000  5.0446800000  0.8614340000
C  -2.8477100000  1.3226220000 -0.9354610000
C  -3.5503850000  0.7043330000 -1.9775760000
C  -2.6998770000  2.7134500000 -0.9564670000
C  -4.0978010000  1.4601030000 -3.0087240000
H  -3.6750380000 -0.3750100000 -1.9730210000
C  -3.2456420000  3.4690290000 -1.9916440000
H  -2.1507420000  3.2174810000 -0.1656690000
C  -3.9461950000  2.8457100000 -3.0203340000
H  -4.6450550000  0.9647490000 -3.8063270000
H  -3.1221440000  4.5487220000 -1.9917450000
H  -4.3718000000  3.4354830000 -3.8273330000
C  -3.2927630000 -0.9544620000  0.7164840000
C  -2.9473590000 -2.2876720000  0.9436040000
C  -4.6328980000 -0.5693750000  0.8571410000
C  -3.9177970000 -3.2204710000  1.3054750000
H  -1.9081810000 -2.5841790000  0.8293320000
C  -5.6024800000 -1.4996550000  1.2148520000
H  -4.9209920000  0.4629840000  0.6745680000
C  -5.2461060000 -2.8289440000  1.4408820000
H  -3.6331080000 -4.2550740000  1.4773930000
H  -6.6385470000 -1.1879310000  1.3165660000
H  -6.0043270000 -3.5558970000  1.7191400000
C   0.4276820000 -2.1294790000 -1.9926720000
H   1.0644310000 -1.7061410000 -2.7704570000
C  -0.9500080000 -1.8161970000 -2.0268830000
H  -1.3588770000 -1.2135810000 -2.8351520000
H  -1.6617180000 -2.5046910000 -1.5739310000
C   0.9214210000 -3.4416900000 -1.4452960000
H   0.9812130000 -4.1915410000 -2.2481490000
H   0.2410700000 -3.8219870000 -0.6752620000
H   1.9190820000 -3.3544800000 -1.0066210000
C   0.4701790000  0.9045920000  3.2594940000
H   0.4280380000  1.4242730000  2.2959110000
H   0.3713760000  1.6824940000  4.0300950000
C   1.8429130000  0.2596110000  3.3888830000
H   2.6033650000  1.0496070000  3.3637120000
H   1.9345570000 -0.2270220000  4.3700630000
C   2.1918430000 -0.7799540000  2.3211320000
H   3.2385120000 -1.0722950000  2.4635330000
H   1.5804740000 -1.6823080000  2.4308890000
