83
LPP11 3ee; extracted from final Gaussian last_standard_orientation
Rh  0.2423920000 -1.4891660000 -0.0356090000
H   0.2349340000 -1.0993210000 -1.5826280000
C   0.4725340000 -2.1066520000  1.7372090000
O   0.6984800000 -2.5712200000  2.7754040000
C  -0.3698050000 -3.4412830000 -0.6976960000
C   1.0413120000 -3.3821100000 -0.8450920000
P  -1.8115310000 -0.3037850000  0.0035830000
C  -3.0554640000 -1.0414540000  1.2700230000
C  -2.7359470000 -0.0064950000 -1.6385200000
C  -1.7282290000  1.4031810000  0.7375500000
C  -3.0802040000 -2.5651810000  1.1187640000
C  -4.4932600000 -0.5222040000  1.1856870000
C  -2.5451410000 -0.7319300000  2.6849270000
C  -1.7311700000  0.4934260000 -2.6824240000
C  -3.8350730000  1.0610320000 -1.5672160000
C  -3.3174860000 -1.3310700000 -2.1354690000
C  -1.1456450000  2.6448360000  0.1025580000
H  -1.1876650000  1.2197910000  1.6678820000
H  -2.7496180000  1.6568910000  1.0395060000
H  -2.1147100000 -2.9959610000  1.3873110000
H  -3.8414640000 -2.9780360000  1.7938160000
H  -3.3179970000 -2.8883820000  0.1020940000
H  -5.0549060000 -0.9226490000  2.0400190000
H  -5.0073970000 -0.8553060000  0.2801960000
H  -4.5569950000  0.5692680000  1.2434390000
H  -2.7031830000  0.3130170000  2.9683800000
H  -3.1034530000 -1.3509180000  3.3989050000
H  -1.4854310000 -0.9713290000  2.8069980000
H  -0.9012750000 -0.2044200000 -2.8179710000
H  -2.2517990000  0.6028570000 -3.6428530000
H  -1.3325810000  1.4770530000 -2.4147210000
H  -3.4339330000  2.0341380000 -1.2675740000
H  -4.6558450000  0.8025300000 -0.8999710000
H  -4.2596950000  1.1840110000 -2.5723400000
H  -3.7071260000 -1.1985370000 -3.1532040000
H  -2.5499780000 -2.1100550000 -2.1654680000
H  -4.1435650000 -1.6845540000 -1.5119800000
C   0.1371950000  2.8162020000 -0.4701500000
C  -1.9534120000  3.7864360000  0.2536730000
C   1.1055500000  1.7506340000 -0.9323580000
C   0.5344060000  4.1237290000 -0.8040300000
C  -1.5469660000  5.0634620000 -0.1028600000
H  -2.9415400000  3.6576730000  0.6894770000
P   1.7630170000  0.3126110000  0.0549780000
H   1.9827200000  2.2796550000 -1.3184480000
H   0.6633740000  1.2391010000 -1.7927330000
C  -0.2727370000  5.2374500000 -0.6267670000
H   1.5219760000  4.2610170000 -1.2381090000
H  -2.2155830000  5.9076510000  0.0390830000
C   3.3464510000 -0.0346670000 -0.9738450000
C   2.3218970000  1.0740800000  1.7120270000
H   0.0895750000  6.2226900000 -0.9057890000
C   4.4435190000  1.0314510000 -0.9322620000
C   2.9015640000 -0.1754310000 -2.4362190000
C   3.9441870000 -1.3663910000 -0.5052290000
C   2.9326620000  2.4743940000  1.5842010000
C   3.3153220000  0.1295110000  2.3938470000
C   1.1030430000  1.2171390000  2.6262670000
H   4.9351570000  1.0889550000  0.0423470000
H   5.2150120000  0.7624210000 -1.6661390000
H   4.0825780000  2.0304720000 -1.2013130000
H   3.7276980000 -0.6028770000 -3.0184360000
H   2.6551800000  0.7928700000 -2.8842840000
H   2.0357980000 -0.8337000000 -2.5321410000
H   3.1644520000 -2.1198250000 -0.3738630000
H   4.6651460000 -1.7251340000 -1.2514950000
H   4.4787570000 -1.2654140000  0.4420460000
H   2.2295570000  3.1797380000  1.1314500000
H   3.1630330000  2.8462660000  2.5917680000
H   3.8592080000  2.4944980000  1.0117250000
H   4.2885840000  0.1274120000  1.8976520000
H   2.9442330000 -0.9000880000  2.4319990000
H   3.4770690000  0.4640370000  3.4266750000
H   0.5269900000  0.2916010000  2.7011250000
H   1.4456930000  1.4840280000  3.6343430000
H   0.4504600000  2.0246900000  2.2844290000
H   1.6367270000 -3.8789220000 -0.0768960000
H  -0.8029000000 -4.0214880000  0.1128270000
C   1.6516680000 -3.4501410000 -2.2219480000
H   1.0079490000 -2.9531820000 -2.9565210000
H   2.6428190000 -2.9924280000 -2.2803230000
H   1.7639050000 -4.5006770000 -2.5295310000
H  -0.9823410000 -3.4229970000 -1.5978980000
