111
LPP15 3ee; extracted from final Gaussian last_standard_orientation
Rh  0.2101790000 -1.6370450000 -0.4859980000
H   0.3503460000 -0.8631170000 -1.8808010000
C   0.3186960000 -2.6676110000  1.0960430000
O   0.4770160000 -3.3638920000  2.0098530000
C  -0.6277130000 -3.2330480000 -1.6430350000
H  -1.2407400000 -3.8992630000 -1.0367440000
C   0.7887240000 -3.3838910000 -1.6562940000
P  -1.9296190000 -0.5948500000 -0.1416280000
C  -2.1754800000  1.1470910000  0.4209320000
C  -1.2468250000  2.0996620000 -0.0020100000
C  -3.2516140000  1.6244100000  1.1816790000
O  -0.1621780000  1.6340150000 -0.6859980000
C  -1.3677070000  3.4721470000  0.2263030000
C  -3.3720810000  2.9769450000  1.4858900000
H  -4.0001430000  0.9314780000  1.5509080000
C   1.0128320000  2.2964830000 -0.4837120000
C  -0.3617330000  4.3795420000 -0.4753160000
C  -2.4452840000  3.8978430000  0.9985920000
H  -4.2075540000  3.3207540000  2.0888280000
C   0.9966130000  3.6921630000 -0.4017170000
C   2.1688200000  1.5258530000 -0.3365420000
C  -0.7744270000  4.4837400000 -1.9597940000
C  -0.3296160000  5.7786300000  0.1322640000
H  -2.5764060000  4.9527590000  1.2178570000
C   2.2195910000  4.3466200000 -0.2841110000
P   2.0463850000 -0.2739790000  0.0633840000
C   3.3801230000  2.2303650000 -0.2680890000
H  -0.7991590000  3.4968380000 -2.4324080000
H  -0.0585800000  5.1079470000 -2.5062070000
H  -1.7704040000  4.9323900000 -2.0449240000
H   0.3706750000  6.4206460000 -0.4104890000
H  -0.0347440000  5.7542390000  1.1866860000
H  -1.3130900000  6.2524980000  0.0559370000
C   3.4081850000  3.6205050000 -0.2589870000
H   2.2537740000  5.4295490000 -0.2219130000
H   4.3154550000  1.6851740000 -0.2002980000
H   4.3597500000  4.1407180000 -0.2005820000
H  -1.1178250000 -2.8867030000 -2.5530550000
H   1.2051340000 -4.1430790000 -0.9910010000
C   1.5718670000 -3.2275950000 -2.9331280000
H   2.6253480000 -2.9972950000 -2.7467550000
H   1.5471590000 -4.1614180000 -3.5155930000
H   1.1569480000 -2.4271560000 -3.5548930000
C   2.2231820000 -0.1512830000  1.9349810000
C   3.4296130000  0.5762150000  2.5649500000
C   0.9238180000  0.4579450000  2.4777530000
H   2.2461290000 -1.2072170000  2.2405780000
H   4.2516540000 -0.1330120000  2.7020520000
H   3.8022020000  1.3655360000  1.9056460000
C   3.0868040000  1.1958470000  3.9295430000
C   0.7823770000  0.2020630000  3.9814980000
H   0.0603930000  0.0559490000  1.9412150000
H   0.9346590000  1.5377370000  2.2778420000
C   2.1356920000  0.2943660000  4.7076240000
H   4.0128290000  1.3703470000  4.4902860000
H   2.6205270000  2.1802600000  3.7900620000
H   0.0765760000  0.9314660000  4.3984650000
H   0.3389520000 -0.7882400000  4.1446430000
H   1.9994040000  0.6557360000  5.7333700000
H   2.5871670000 -0.7041030000  4.7902320000
C   3.5993700000 -1.0309580000 -0.6630010000
C   3.8349750000 -0.5176030000 -2.0980610000
C   4.9087500000 -1.0579000000  0.1269170000
H   3.2687920000 -2.0753790000 -0.7384290000
H   3.0469910000 -0.9155300000 -2.7446290000
H   3.7373570000  0.5713730000 -2.1419210000
C   5.2234900000 -0.9186150000 -2.6242260000
C   5.8687490000 -2.0916920000 -0.4956420000
H   4.7291970000 -1.3236140000  1.1711330000
H   5.3778550000 -0.0663370000  0.1340660000
C   5.6832870000 -2.2370850000 -2.0143190000
H   5.2030860000 -0.9767020000 -3.7185620000
H   5.9555830000 -0.1391430000 -2.3708260000
H   6.9013220000 -1.7948110000 -0.2739540000
H   5.7165740000 -3.0653890000 -0.0139990000
H   6.6164370000 -2.5779160000 -2.4773680000
H   4.9350930000 -3.0114070000 -2.2309780000
C  -2.8574930000 -1.6448110000  1.1045740000
C  -2.4195890000 -1.2865650000  2.5466320000
C  -4.3741860000 -1.8255610000  1.0134550000
H  -2.4332450000 -2.6314810000  0.8722530000
H  -1.4554120000 -1.7615110000  2.7500690000
H  -2.2580370000 -0.2096770000  2.6581670000
C  -3.4386940000 -1.7557320000  3.5904910000
C  -4.8222640000 -3.0010230000  1.9012340000
H  -4.6733480000 -2.0324370000 -0.0163860000
H  -4.8988010000 -0.9097250000  1.3093170000
C  -4.0058140000 -3.1141690000  3.2002920000
H  -2.9603540000 -1.7935410000  4.5761200000
H  -4.2593670000 -1.0291810000  3.6729860000
H  -5.8867700000 -2.8774200000  2.1355680000
H  -4.7383260000 -3.9351930000  1.3322040000
H  -4.6239580000 -3.5310480000  4.0034520000
H  -3.1692840000 -3.8123710000  3.0602270000
C  -2.9702180000 -0.5595220000 -1.7112030000
C  -4.3763400000  0.0831360000 -1.6220070000
C  -2.1816290000  0.1022190000 -2.8452940000
H  -3.0735710000 -1.6263630000 -1.9581300000
H  -5.1134890000 -0.6840870000 -1.3670410000
H  -4.4165600000  0.8306790000 -0.8235760000
C  -4.8077620000  0.7417790000 -2.9401220000
C  -2.8397660000 -0.1645170000 -4.2036870000
H  -1.1487070000 -0.2539190000 -2.8461200000
H  -2.1350180000  1.1826310000 -2.6535960000
C  -4.3759350000 -0.1113570000 -4.1258820000
H  -5.8946950000  0.8871550000 -2.9317070000
H  -4.3629340000  1.7418790000 -3.0291550000
H  -2.4720450000  0.5770760000 -4.9239200000
H  -2.5184520000 -1.1449290000 -4.5784580000
H  -4.7982510000  0.2687880000 -5.0632150000
H  -4.7826410000 -1.1235890000 -3.9925830000
