95
LPP16 3ee; extracted from final Gaussian last_standard_orientation
Rh  0.4623560000 -1.6715910000 -0.4218370000
H   0.3732630000 -0.7510050000 -1.7227330000
C   0.8343300000 -2.8995590000  0.9685460000
O   1.1606210000 -3.7522300000  1.6845120000
C  -0.1275810000 -3.2444070000 -1.7731970000
H  -0.6172120000 -4.0594960000 -1.2443780000
C   1.2839200000 -3.1728290000 -1.8222150000
P  -1.8871090000 -1.0105770000  0.0587300000
C  -3.0421070000 -0.9335280000 -1.4846710000
C  -2.7292200000 -2.1701070000  1.3359120000
C  -2.2466010000  0.7123160000  0.6764610000
C  -4.3109500000 -0.1034790000 -1.2554020000
C  -3.4574420000 -2.3348750000 -1.9462500000
C  -2.2657600000 -0.2695030000 -2.6252880000
C  -2.0851980000 -1.8665420000  2.6950110000
C  -2.3923050000 -3.6259880000  0.9820280000
C  -4.2594500000 -2.1220780000  1.4712710000
C  -1.5095660000  1.7551640000  0.1031550000
C  -3.2577540000  1.1133080000  1.5586750000
H  -4.9037490000 -0.4474240000 -0.4047670000
H  -4.0831580000  0.9549140000 -1.1019860000
H  -4.9410410000 -0.1827420000 -2.1515710000
H  -4.1919380000 -2.7948490000 -1.2811550000
H  -2.6098910000 -3.0131450000 -2.0436980000
H  -3.9297670000 -2.2474030000 -2.9336930000
H  -1.9409730000  0.7402520000 -2.3641860000
H  -1.3746720000 -0.8383260000 -2.8965650000
H  -2.9240150000 -0.1968270000 -3.5013920000
H  -0.9971510000 -1.9687330000  2.6460850000
H  -2.3126630000 -0.8615390000  3.0608950000
H  -2.4550860000 -2.5869940000  3.4359630000
H  -1.3191550000 -3.8039650000  0.9355410000
H  -2.8298150000 -3.9345560000  0.0302730000
H  -2.8067590000 -4.2762290000  1.7635760000
H  -4.6700400000 -1.1442670000  1.7200770000
H  -4.7618840000 -2.4694450000  0.5659240000
H  -4.5480040000 -2.8064160000  2.2800610000
O  -0.4071200000  1.4047570000 -0.6179250000
C  -1.8238240000  3.1107210000  0.2283660000
C  -3.5373590000  2.4564620000  1.7909490000
H  -3.8464050000  0.3777690000  2.0866340000
C   0.6495540000  2.2660100000 -0.5795240000
C  -1.0583480000  4.0823490000 -0.6649230000
C  -2.8516560000  3.4531820000  1.1023520000
H  -4.3234750000  2.7247390000  2.4907790000
C   0.3987650000  3.6393230000 -0.6575430000
C   1.9258390000  1.7164520000 -0.4079950000
C  -1.6084380000  3.9575150000 -2.1013240000
C  -1.2176670000  5.5277820000 -0.2017100000
H  -3.1218290000  4.4936090000  1.2515270000
C   1.4916560000  4.4980830000 -0.7191060000
P   2.0832000000 -0.0108330000  0.2651940000
C   2.9919460000  2.6208040000 -0.5122330000
H  -1.4878160000  2.9409220000 -2.4866030000
H  -1.0704610000  4.6399320000 -2.7687780000
H  -2.6742260000  4.2106190000 -2.1230570000
H  -0.6909580000  6.2101470000 -0.8754910000
H  -0.8322280000  5.6731870000  0.8130000000
H  -2.2720920000  5.8204240000 -0.2198100000
C   2.7838730000  3.9831410000 -0.6940060000
H   1.3415030000  5.5706360000 -0.7870710000
C   2.0640700000  0.4537090000  2.1333210000
C   3.8699770000 -0.5282440000 -0.1960200000
H   4.0087240000  2.2729840000 -0.4037600000
H   3.6370190000  4.6512590000 -0.7667790000
C   2.9271000000  1.6528080000  2.5365740000
C   2.4733380000 -0.7572000000  2.9729930000
C   0.6160960000  0.8077760000  2.4721550000
C   5.0469550000  0.0830090000  0.5757520000
C   4.0321930000 -0.2328530000 -1.6936820000
C   3.9762090000 -2.0440670000  0.0125830000
H   3.9965210000  1.4840110000  2.4023420000
H   2.6485530000  2.5588220000  1.9928370000
H   2.7598610000  1.8459320000  3.6046920000
H   3.5130040000 -1.0533240000  2.8083150000
H   1.8354270000 -1.6224120000  2.7863240000
H   2.3722200000 -0.4987750000  4.0351700000
H   0.3169200000  1.7617340000  2.0266810000
H  -0.0753000000  0.0378410000  2.1254940000
H   0.5125180000  0.9080700000  3.5607930000
H   5.0930570000  1.1726700000  0.5598590000
H   5.0596970000 -0.2373380000  1.6212690000
H   5.9746270000 -0.2849230000  0.1175720000
H   3.1309950000 -0.4995940000 -2.2518450000
H   4.2471020000  0.8195480000 -1.8930920000
H   4.8678740000 -0.8238820000 -2.0908580000
H   3.2353490000 -2.5768300000 -0.5805570000
H   3.8352220000 -2.3293620000  1.0598170000
H   4.9795880000 -2.3718970000 -0.2896340000
H  -0.6777780000 -2.8765720000 -2.6360510000
H   1.8243350000 -3.9314280000 -1.2523190000
C   1.9885590000 -2.7614940000 -3.0878700000
H   3.0231960000 -2.4576600000 -2.9095570000
H   2.0206030000 -3.6074490000 -3.7907880000
H   1.4680320000 -1.9316350000 -3.5770770000
