80
LPP13 3ee; extracted from final Gaussian last_standard_orientation
H  -6.0280020000 -1.6100340000 -2.1264680000
H  -4.0082460000 -0.1938590000 -2.0328110000
H  -0.3781110000  0.1105600000 -2.6040400000
H  -0.5854730000  1.6229070000 -4.5638530000
H  -3.6543570000  3.8291820000 -2.5189340000
H  -3.4387760000  2.3257900000 -0.5742050000
H   1.7721680000 -1.7870480000 -2.4499540000
H   3.4123830000 -2.3934250000 -4.2181320000
H   6.4480620000 -0.1729310000 -2.1392560000
H   4.8100910000  0.4373090000 -0.3955320000
H   2.9448250000 -2.1370440000  1.7481840000
C  -5.3662820000 -1.6752000000 -1.2669580000
C  -4.2243750000 -0.8751940000 -1.2158140000
C  -1.8962880000  1.1090600000 -1.4686140000
C  -1.0990540000  0.9223430000 -2.5982280000
C  -1.2193540000  1.7736770000 -3.6943940000
C  -2.1373760000  2.8185690000 -3.6703240000
C  -2.9368800000  3.0133810000 -2.5446640000
C  -2.8164280000  2.1654040000 -1.4502020000
C   3.1744890000 -0.6257680000 -1.3184140000
C   2.7959540000 -1.4269370000 -2.3990840000
C   3.7195830000 -1.7673730000 -3.3846860000
C   5.0340300000 -1.3169460000 -3.2951750000
C   5.4223920000 -0.5233700000 -2.2169750000
C   4.4993170000 -0.1792160000 -1.2345500000
C   2.9809050000 -0.0063400000  1.4390100000
C   4.5994900000  0.0825680000  3.7199890000
C   4.1318030000 -1.1409450000  3.2425790000
C   3.3224980000 -1.1843760000  2.1129490000
H  -2.9716750000 -1.9318520000  1.7593610000
H  -5.0179840000 -3.3107810000  1.6884300000
H   3.2040780000  2.1358310000  1.3999190000
H   4.6216530000  2.2155770000  3.4245410000
C  -3.3564940000 -0.9544800000 -0.1248450000
C  -3.6520900000 -1.8469640000  0.9154600000
C  -4.7991250000 -2.6284730000  0.8715830000
C  -5.6581730000 -2.5492960000 -0.2256200000
C   3.4590510000  1.2154180000  1.9179050000
C   4.2607340000  1.2587430000  3.0566960000
H  -4.1775900000  0.7262750000  1.5328260000
H  -2.5860120000  3.4191910000  4.4691260000
H  -4.5182400000  2.2022280000  3.4747170000
H   0.1956590000  5.0535720000 -1.5961220000
H   2.7465690000  1.6736330000 -2.3005190000
H   1.8956110000  3.8913510000 -2.9892980000
C  -3.3326020000  1.2684720000  1.9458620000
C  -2.0684470000  1.1033140000  1.3670210000
C  -1.0026610000  1.8207410000  1.9336100000
C  -1.1810120000  2.6392130000  3.0425090000
C  -2.4466040000  2.7793480000  3.6026960000
C  -3.5251540000  2.0974820000  3.0476780000
C   0.6366020000  2.2745730000  0.2770270000
C   0.1400590000  3.5149360000 -0.1030590000
C   0.5909520000  4.0902230000 -1.2873310000
C   1.5412930000  3.4387630000 -2.0679100000
C   2.0251450000  2.1930430000 -1.6771850000
C   1.5707160000  1.5829180000 -0.5060180000
O   0.2786360000  1.6701100000  1.4558570000
H   0.0324110000 -1.4654700000 -1.4560710000
C   0.0128250000 -1.5304910000  2.0465780000
O  -0.0176650000 -1.5541120000  3.2000470000
P  -1.7650030000 -0.0451230000 -0.0456140000
P   1.9279280000 -0.1551740000 -0.0538770000
Rh  0.0356620000 -1.4801240000  0.1476510000
C   0.6693990000 -3.5272190000 -0.0920330000
C  -0.7500450000 -3.4874140000 -0.1221240000
H   1.1859500000 -3.8859020000  0.7966070000
H   1.2181340000 -3.6866290000 -1.0190440000
H  -1.2731070000 -3.7823610000  0.7888290000
C  -1.5303830000 -3.7575970000 -1.3823960000
H  -2.4682930000 -3.1939580000 -1.4117940000
H  -0.9451640000 -3.4831900000 -2.2669840000
H  -1.7846440000 -4.8254880000 -1.4585820000
H   5.2238410000  0.1181720000  4.6085260000
H   5.7569590000 -1.5880080000 -4.0598100000
H  -6.5481370000 -3.1710720000 -0.2671700000
H  -2.2283620000  3.4845510000 -4.5242210000
H  -0.3162870000  3.1518050000  3.4525170000
H  -0.5972050000  4.0141520000  0.5179030000
H   4.3904190000 -2.0625330000  3.7568670000
