87
LPP12 3ee; extracted from final Gaussian last_standard_orientation
H  -4.2267630000 -2.9780350000  3.4339040000
H  -2.9084160000 -2.5778770000  1.3807690000
H  -1.7136820000 -0.2838490000 -2.8441650000
H  -3.1881660000 -0.9247660000 -4.7202460000
H  -6.2855720000 -1.9543650000 -1.9263230000
H  -4.8311960000 -1.2680230000 -0.0571020000
H   1.6819520000 -1.4123780000 -2.7516480000
H   3.2044870000 -2.4322520000 -4.4199090000
H   6.4102190000 -2.2926520000 -1.5622640000
H   4.9035220000 -1.2359210000  0.0798390000
H   3.9809370000 -2.8339340000  3.7587110000
H   2.7951430000 -2.6372970000  1.5998360000
C  -4.0144230000 -1.9600990000  3.1186540000
C  -3.2790080000 -1.7363720000  1.9610310000
C  -3.1706750000 -0.7261800000 -1.3214380000
C  -2.7239030000 -0.6321840000 -2.6452890000
C  -3.5500930000 -1.0024450000 -3.6985060000
C  -4.8335240000 -1.4868650000 -3.4454860000
C  -5.2857600000 -1.5822600000 -2.1336760000
C  -4.4622870000 -1.1966330000 -1.0755430000
C   3.1887780000 -1.2428250000 -1.2290850000
C   2.7254440000 -1.5887300000 -2.5038050000
C   3.5799500000 -2.1697890000 -3.4344920000
C   4.9082880000 -2.4279790000 -3.0996830000
C   5.3763300000 -2.0944080000 -1.8320730000
C   4.5241960000 -1.5005110000 -0.9026550000
C   2.9423450000 -0.4889650000  1.5172470000
C   4.2651910000 -0.7075960000  3.9781200000
C   3.8189790000 -1.8533230000  3.3196060000
C   3.1545560000 -1.7438300000  2.1045820000
H  -3.2504460000  1.6613440000  1.9845390000
H  -4.5192170000  1.2624180000  4.0617250000
H   3.2500200000  1.6334250000  1.7375930000
H   4.3934700000  1.4402960000  3.9141130000
C  -3.0020010000 -0.4309700000  1.5310860000
C  -3.4586860000  0.6431790000  2.2981560000
C  -4.1787280000  0.4168050000  3.4702290000
C  -4.4640390000 -0.8816210000  3.8798070000
C   3.3992070000  0.6527390000  2.1791160000
C   4.0501840000  0.5425140000  3.4071060000
H  -4.1620810000  1.5904870000 -0.8474030000
H  -2.2365340000  5.4102960000 -1.0530800000
H  -4.2547360000  4.0128840000 -1.3143840000
H   2.7077770000  5.0815730000 -1.5222960000
H   4.2025320000  1.0668920000 -1.4640850000
H   4.4682210000  3.4430270000 -2.0750090000
C  -3.2798250000  2.2043610000 -0.6926950000
C  -2.0948070000  1.6003750000 -0.2486530000
C  -0.9896430000  2.4278960000 -0.0622010000
C  -0.9995760000  3.7967170000 -0.3544250000
C  -2.1894980000  4.3532670000 -0.8115990000
C  -3.3295160000  3.5644320000 -0.9645770000
C   1.3015910000  2.2867140000 -0.2457780000
C   1.4241530000  3.6401650000 -0.5731360000
C   2.5768670000  4.0410590000 -1.2427070000
C   3.5721750000  3.1165460000 -1.5552760000
C   3.4242270000  1.7789430000 -1.2088700000
C   2.2716450000  1.3321190000 -0.5506210000
C   0.2973190000  4.5625490000 -0.1246670000
O   0.1695200000  1.8632630000  0.4004380000
H  -0.0693850000 -1.2731440000 -1.5588790000
C  -0.0548330000 -1.7264050000  1.9225840000
O  -0.0659240000 -1.8648850000  3.0670630000
P  -1.9981150000 -0.2254330000  0.0065020000
P   2.0171790000 -0.4277950000 -0.0682170000
Rh -0.0530450000 -1.4954170000  0.0330470000
C   0.6333250000 -3.4946930000 -0.4185440000
C  -0.7814130000 -3.5239170000 -0.4127530000
H   1.1871830000 -3.9137740000  0.4195670000
H   1.1655050000 -3.5266110000 -1.3673490000
H  -1.2560140000 -3.9267600000  0.4841930000
C  -1.5801700000 -3.7358600000 -1.6702920000
H  -2.5782550000 -3.2937030000 -1.6066410000
H  -1.0768040000 -3.2888440000 -2.5335200000
C   0.4538980000  4.8235230000  1.3889840000
H   1.4018300000  5.3363940000  1.5859230000
H  -0.3671190000  5.4535370000  1.7485610000
H   0.4434620000  3.8877220000  1.9554540000
C   0.3159350000  5.8971870000 -0.8626750000
H  -0.4918020000  6.5440670000 -0.5069100000
H   1.2526920000  6.4293510000 -0.6707070000
H   0.2056760000  5.7643200000 -1.9441130000
H  -5.4755610000 -1.7884520000 -4.2684880000
H   5.5736600000 -2.8914200000 -3.8229410000
H   4.7759390000 -0.7915550000  4.9333510000
H  -5.0286130000 -1.0552470000  4.7916810000
H  -1.7046350000 -4.8118320000 -1.8643560000
