113
LPP22 3ee; extracted from final Gaussian last_input_orientation
P   1.8268460000  0.1873890000  0.5148620000
P  -1.7963250000  0.5464240000 -0.5159190000
O   2.7688650000  0.4629950000  1.8570840000
O   2.9926460000  0.2211540000 -0.6369720000
O   1.7182180000 -1.4192650000  0.8280270000
O  -2.7212050000 -4.6884530000  0.9727720000
O  -1.7689070000 -0.5713810000 -1.7186980000
O   2.9818850000 -2.4202290000 -3.8374480000
O  -2.6603150000 -0.1765460000  0.6792710000
O  -3.0333760000  1.4049050000 -1.2275560000
C   4.6957590000  1.7035040000  1.1828280000
C   3.4982780000  1.6283740000  1.9050450000
C   3.0694590000  2.6680140000  2.7219290000
C   3.8347630000  3.8259120000  2.8140040000
C   5.0224680000  3.9333730000  2.0916350000
C   5.4485260000  2.8792720000  1.2916140000
C   5.1632610000  0.5584370000  0.3801070000
C   4.3037510000 -0.1761110000 -0.4514320000
C   4.7713290000 -1.2364100000 -1.2193740000
C   6.1133220000 -1.5946540000 -1.1563530000
C   6.9861750000 -0.8900810000 -0.3304250000
C   6.5098490000  0.1741740000  0.4243200000
C  -0.1835980000 -2.4164060000 -0.2397150000
C   0.5620890000 -2.1715370000  0.9236090000
C   0.2199320000 -2.7617830000  2.1529090000
C  -0.8905420000 -3.6140030000  2.1609550000
C  -1.6327680000 -3.8731940000  1.0126410000
C  -1.2841350000 -3.2634770000 -0.1863110000
C   0.9772190000 -2.4961620000  3.4613290000
C  -3.1629570000 -5.2527210000  2.1880210000
C   0.2265150000 -1.8873040000 -1.5638780000
C  -0.5905540000 -1.0146800000 -2.2997690000
C  -0.2591980000 -0.6272040000 -3.6082990000
C   0.9538290000 -1.1056930000 -4.1227730000
C   1.7927190000 -1.9389530000 -3.3881800000
C   1.4167630000 -2.3440720000 -2.1130180000
C  -1.1457880000  0.2761170000 -4.4783790000
C   3.4586690000 -1.9427250000 -5.0763020000
C  -4.9671280000  0.5590150000  0.6408340000
C  -4.0128810000 -0.4678450000  0.6366100000
C  -4.3928520000 -1.8014700000  0.7188960000
C  -5.7381730000 -2.1355000000  0.8217640000
C  -6.7053970000 -1.1337380000  0.8448990000
C  -6.3162280000  0.1959460000  0.7492190000
C  -4.5995590000  1.9768060000  0.4956260000
C  -3.6552710000  2.3684490000 -0.4621310000
C  -3.3943480000  3.7098220000 -0.7159900000
C  -4.0511420000  4.6906520000  0.0189360000
C  -4.9675350000  4.3246740000  1.0037260000
C  -5.2429350000  2.9814520000  1.2293100000
C   0.5025270000 -3.4195710000  4.5906050000
C   2.4881410000 -2.7317120000  3.3003700000
C   0.6997000000 -1.0530290000  3.9103320000
C  -2.5996980000 -0.2237980000 -4.4899120000
C  -0.6701300000  0.2961870000 -5.9369990000
C  -1.0869730000  1.7221340000 -3.9630920000
H   2.1439330000  2.5523990000  3.2769280000
H   3.5017370000  4.6428500000  3.4474530000
H   5.6183600000  4.8391330000  2.1530860000
H   6.3706450000  2.9649300000  0.7233480000
H   4.0871170000 -1.7492740000 -1.8855110000
H   6.4737860000 -2.4248600000 -1.7569960000
H   8.0336880000 -1.1702280000 -0.2707180000
H   7.1819600000  0.7183630000  1.0821930000
H  -1.1759530000 -4.0888070000  3.0884790000
H  -1.8647340000 -3.4633770000 -1.0807990000
H  -3.4293150000 -4.4759370000  2.9163710000
H  -2.4043820000 -5.9145050000  2.6247780000
H  -4.0504260000 -5.8378320000  1.9424000000
H   1.2428030000 -0.8219940000 -5.1246940000
H   2.0511570000 -3.0214840000 -1.5511980000
H   2.8020930000 -2.2429980000 -5.9027260000
H   4.4408800000 -2.3964130000 -5.2158940000
H   3.5593200000 -0.8500860000 -5.0710250000
H  -3.6304180000 -2.5673810000  0.7105070000
H  -6.0244810000 -3.1816910000  0.8819310000
H  -7.7589700000 -1.3860070000  0.9204470000
H  -7.0663130000  0.9817640000  0.7300240000
H  -2.6854440000  3.9649210000 -1.4954020000
H  -3.8445180000  5.7388400000 -0.1767490000
H  -5.4729890000  5.0860460000  1.5903380000
H  -5.9619600000  2.6929890000  1.9910920000
H  -0.5461880000 -3.2473740000  4.8579880000
H   1.1008110000 -3.2163890000  5.4851250000
H   0.6318090000 -4.4783200000  4.3374440000
H   2.6829170000 -3.7553430000  2.9593970000
H   2.9787680000 -2.6017050000  4.2723290000
H   2.9440610000 -2.0386840000  2.5943130000
H   1.0772270000 -0.3240130000  3.1942000000
H   1.1959880000 -0.8595900000  4.8695430000
H  -0.3758900000 -0.8894060000  4.0403980000
H  -3.1917660000  0.3998770000 -5.1701270000
H  -3.0583360000 -0.1806000000 -3.5019860000
H  -2.6483520000 -1.2575000000 -4.8518470000
H  -0.6377310000 -0.7095720000 -6.3715490000
H   0.3172480000  0.7585780000 -6.0484010000
H  -1.3731290000  0.8925390000 -6.5282740000
H  -0.0521390000  2.0826080000 -3.9397310000
H  -1.5058280000  1.8186870000 -2.9616580000
H  -1.6641570000  2.3739450000 -4.6310690000
Rh  0.1048440000  1.5485890000  0.1025680000
C  -0.4230790000  1.9610360000  1.9061940000
H   0.4962660000  1.2599210000 -1.4134360000
O  -0.7518910000  2.2253760000  2.9754340000
C   1.2546150000  3.4240730000 -0.2407860000
C  -0.0948530000  3.6172310000 -0.5823830000
H   1.5840370000  3.7823220000  0.7330050000
H  -0.3756710000  3.6403000000 -1.6333630000
H  -0.7635050000  4.1498820000  0.0874340000
C   2.3387700000  3.3657200000 -1.2826420000
H   2.7338390000  4.3761780000 -1.4598620000
H   1.9515810000  2.9751120000 -2.2295790000
H   3.1737850000  2.7327550000 -0.9751640000
