81
LPP23 3ee; extracted from final Gaussian last_input_orientation
P   1.9532970000  0.2390620000  0.4592810000
P  -1.7341310000  0.6297270000 -0.5001150000
O   2.8497360000  0.4498630000  1.8427070000
O   3.1267600000  0.3764500000 -0.6715680000
O   1.9211660000 -1.4004210000  0.6037580000
O  -1.7776870000 -0.6525100000 -1.5301090000
O  -2.6512140000  0.1021810000  0.7514140000
O  -2.8837440000  1.4667970000 -1.3573690000
C   4.8394730000  1.6484560000  1.2531640000
C   3.6218550000  1.5866100000  1.9465440000
C   3.2122330000  2.6103330000  2.7926060000
C   4.0170770000  3.7341000000  2.9503040000
C   5.2270380000  3.8245660000  2.2643700000
C   5.6321650000  2.7887680000  1.4301590000
C   5.2828630000  0.5311280000  0.3978020000
C   4.4092990000 -0.1053850000 -0.4943370000
C   4.8279860000 -1.1519700000 -1.3059290000
C   6.1467150000 -1.5873000000 -1.2394250000
C   7.0383280000 -0.9712210000 -0.3631680000
C   6.6059750000  0.0744650000  0.4436770000
C  -0.0690850000 -2.4834750000 -0.1823130000
C   0.7830820000 -2.1255160000  0.8671000000
C   0.5486870000 -2.5460780000  2.1719390000
C  -0.5433210000 -3.3635350000  2.4415780000
C  -1.3945900000 -3.7501550000  1.4082500000
C  -1.1634290000 -3.3014210000  0.1117120000
C   0.2012760000 -2.0139330000 -1.5605080000
C  -0.6501730000 -1.0987230000 -2.1848370000
C  -0.4026640000 -0.6380520000 -3.4736930000
C   0.7168170000 -1.0924330000 -4.1615770000
C   1.5830430000 -2.0021650000 -3.5574890000
C   1.3241450000 -2.4541700000 -2.2684990000
C  -4.9691570000  0.6945120000  0.4115650000
C  -3.9798510000 -0.2682210000  0.6478460000
C  -4.3013370000 -1.5943900000  0.9064640000
C  -5.6338790000 -1.9894000000  0.9261470000
C  -6.6392360000 -1.0539470000  0.6898930000
C  -6.3042580000  0.2701920000  0.4361680000
C  -4.6394960000  2.1066690000  0.1508010000
C  -3.6025220000  2.4585470000 -0.7246460000
C  -3.3468710000  3.7866050000 -1.0458730000
C  -4.1105480000  4.7963030000 -0.4706960000
C  -5.1305340000  4.4728180000  0.4222300000
C  -5.3918660000  3.1411930000  0.7212760000
H   2.2698120000  2.5081220000  3.3211430000
H   3.6976520000  4.5370700000  3.6081370000
H   5.8551550000  4.7030040000  2.3783510000
H   6.5703710000  2.8620950000  0.8869840000
H   4.1105520000 -1.5955220000 -1.9881300000
H   6.4765490000 -2.4062950000 -1.8719680000
H   8.0682160000 -1.3101030000 -0.3024160000
H   7.2938450000  0.5430690000  1.1422030000
H  -0.7242050000 -3.7027950000  3.4572120000
H  -1.8326980000 -3.5861150000 -0.6950540000
H   0.9126320000 -0.7335880000 -5.1677070000
H   1.9963120000 -3.1592570000 -1.7878380000
H  -3.4938080000 -2.2893650000  1.1050040000
H  -5.8849710000 -3.0269300000  1.1270910000
H  -7.6822960000 -1.3560240000  0.6964610000
H  -7.0841540000  0.9986650000  0.2322570000
H  -2.5563090000  4.0084560000 -1.7538040000
H  -3.9072020000  5.8335510000 -0.7204030000
H  -5.7234490000  5.2569890000  0.8834640000
H  -6.1845090000  2.8855030000  1.4190110000
Rh  0.1981810000  1.5762720000  0.1065000000
C  -0.2876350000  1.8994390000  1.9398780000
H   0.5707530000  1.3437310000 -1.4285190000
O  -0.5773930000  2.1018160000  3.0329470000
C   1.3111010000  3.4977130000 -0.1283120000
C  -0.0290600000  3.6666380000 -0.5124140000
H   1.5919260000  3.8235560000  0.8722420000
H  -0.2698890000  3.7185810000 -1.5718870000
H  -0.7403680000  4.1538060000  0.1483050000
C   2.4380220000  3.5110250000 -1.1244840000
H   2.7822830000  4.5441330000 -1.2751360000
H   2.1149390000  3.1096000000 -2.0902290000
H   3.2937260000  2.9233010000 -0.7853750000
H  -2.2391760000 -4.4024790000  1.6126030000
H   1.2364100000 -2.2371680000  2.9529550000
H   2.4571950000 -2.3618580000 -4.0927020000
H  -1.0913650000  0.0752730000 -3.9156040000
