71
LPP3 3ea; extracted from final Gaussian last_standard_orientation
C  -1.7661630000 -0.5175460000  2.4613510000
H  -1.7859510000 -1.6142290000  2.4738160000
H  -2.7297440000 -0.2020740000  2.8778200000
C  -0.6461980000 -0.0065590000  3.3752060000
H  -0.7740170000  1.0701960000  3.5433090000
H  -0.8111820000 -0.4832590000  4.3500310000
C   0.8031150000 -0.2623100000  2.9506910000
H   0.9009600000 -1.2831830000  2.5631200000
H   1.4258340000 -0.2190630000  3.8508130000
C   1.3505040000  0.7583730000  1.9360020000
H   0.6310390000  1.5704490000  1.7838370000
H   2.2696980000  1.2207520000  2.3121600000
P  -1.7091970000 -0.0929760000  0.6601250000
P   1.6674560000  0.0075050000  0.2794150000
Rh -0.0805710000 -1.2376210000 -0.6096850000
H   1.0159570000 -2.0364760000 -1.4357720000
C  -0.5317060000 -0.5564470000 -2.2977470000
O  -0.7214120000 -0.2033270000 -3.3856560000
C  -3.4548260000 -0.4057070000  0.1516970000
C  -3.7094070000 -1.1230050000 -1.0205080000
C  -4.5394300000  0.0937970000  0.8831920000
C  -5.0165680000 -1.3438110000 -1.4489460000
H  -2.8715550000 -1.5107960000 -1.5924600000
C  -5.8444840000 -0.1281990000  0.4579810000
H  -4.3752580000  0.6758380000  1.7854250000
C  -6.0865900000 -0.8502370000 -0.7096750000
H  -5.1946850000 -1.9044470000 -2.3624690000
H  -6.6744930000  0.2677530000  1.0367560000
H  -7.1067150000 -1.0227820000 -1.0415030000
C  -1.6553150000  1.7432630000  0.6338360000
C  -1.0660900000  2.3851940000 -0.4594030000
C  -2.1933980000  2.5253130000  1.6642970000
C  -1.0178880000  3.7751750000 -0.5260320000
H  -0.6204850000  1.7920720000 -1.2511470000
C  -2.1404070000  3.9140100000  1.6009230000
H  -2.6507850000  2.0550740000  2.5298120000
C  -1.5531060000  4.5424920000  0.5039980000
H  -0.5438300000  4.2522230000 -1.3787790000
H  -2.5572300000  4.5062880000  2.4109570000
H  -1.5094840000  5.6271250000  0.4572590000
C   2.2156320000  1.4391000000 -0.7299010000
C   2.4716050000  1.2099230000 -2.0879160000
C   2.3644220000  2.7331370000 -0.2240340000
C   2.8723410000  2.2493570000 -2.9187090000
H   2.3422390000  0.2085940000 -2.4919000000
C   2.7567850000  3.7776780000 -1.0599230000
H   2.1611450000  2.9434720000  0.8210050000
C   3.0120270000  3.5394000000 -2.4066050000
H   3.0668250000  2.0551740000 -3.9699230000
H   2.8592030000  4.7806210000 -0.6539310000
H   3.3157250000  4.3546650000 -3.0575130000
C   3.2820800000 -0.8285950000  0.5704680000
C   3.4495520000 -2.1790770000  0.2636490000
C   4.3663820000 -0.1135350000  1.0949800000
C   4.6701150000 -2.8123690000  0.4941210000
H   2.6170230000 -2.7242750000 -0.1682470000
C   5.5836290000 -0.7432440000  1.3258900000
H   4.2669950000  0.9486360000  1.3058860000
C   5.7364360000 -2.0979900000  1.0302290000
H   4.7851390000 -3.8651760000  0.2506740000
H   6.4173540000 -0.1760470000  1.7310500000
H   6.6883580000 -2.5899640000  1.2106650000
C  -1.0684050000 -3.1535980000 -0.3529660000
H  -2.0964880000 -2.9876770000 -0.0267310000
C  -0.0619410000 -3.0260560000  0.6365660000
H  -0.3378140000 -2.8392740000  1.6711850000
H   0.8525070000 -3.6066020000  0.5334380000
C  -0.9492420000 -4.1240720000 -1.5001140000
H  -1.3474380000 -5.1105500000 -1.2185750000
H   0.0973660000 -4.2510080000 -1.7960240000
H  -1.5038740000 -3.7835670000 -2.3816470000
