75
LPP9 3ea; extracted from final Gaussian last_standard_orientation
Rh -0.1461890000 -0.4052560000  1.2183630000
H   0.9073110000 -0.7028730000  2.3673480000
C  -0.3355860000 -2.2774410000  1.0740790000
O  -0.4408720000 -3.4294650000  1.1131950000
P   1.6899790000  0.2267990000 -0.0376430000
C   1.4948690000 -0.0254310000 -1.8761150000
C   3.2521310000 -0.6991430000  0.2385080000
C   2.2821400000  1.9588500000  0.0700370000
C   0.9875670000 -1.4129440000 -2.1467840000
H   0.7989820000  0.7416190000 -2.2329890000
H   2.4591460000  0.1383400000 -2.3705460000
C   3.2319290000 -1.9257830000  0.9042730000
C   4.4612790000 -0.2284630000 -0.2878560000
C   2.4512050000  2.8006590000 -1.0331930000
C   2.5167870000  2.4693400000  1.3540300000
C  -0.3888000000 -1.6940490000 -2.2428620000
C   1.9044500000 -2.4617840000 -2.2559730000
C   4.3987220000 -2.6759910000  1.0358090000
H   2.2970510000 -2.2884520000  1.3179740000
C   5.6263190000 -0.9762190000 -0.1547910000
H   4.4919170000  0.7315820000 -0.7976160000
C   2.8395460000  4.1283210000 -0.8554350000
H   2.2730700000  2.4342860000 -2.0394150000
C   2.9164440000  3.7885110000  1.5291850000
H   2.3682370000  1.8232480000  2.2155460000
C  -1.4193000000 -0.6070250000 -2.1605990000
C  -0.7964800000 -3.0138220000 -2.4496510000
C   1.4829000000 -3.7741800000 -2.4444530000
H   2.9663360000 -2.2410980000 -2.1833620000
C   5.5959940000 -2.2042200000  0.5058480000
H   4.3688510000 -3.6300470000  1.5549110000
H   6.5601070000 -0.5992370000 -0.5632930000
C   3.0730670000  4.6246270000  0.4233000000
H   2.9606280000  4.7729130000 -1.7219440000
H   3.0967430000  4.1695380000  2.5306390000
P  -1.7103580000  0.1231420000 -0.4497180000
H  -2.3847180000 -0.9673070000 -2.5306520000
H  -1.1406030000  0.2417160000 -2.7947340000
C   0.1238720000 -4.0526930000 -2.5417380000
H  -1.8586010000 -3.2274140000 -2.5476550000
H   2.2158570000 -4.5724000000 -2.5196010000
H   6.5066990000 -2.7877280000  0.6104200000
H   3.3744360000  5.6594180000  0.5603380000
C  -1.9873000000  1.8694920000 -0.9282850000
C  -3.3830610000 -0.4894150000 -0.0373520000
H  -0.2205220000 -5.0711410000 -2.6969510000
C  -3.0522410000  2.2401210000 -1.7613580000
C  -1.0471030000  2.8325730000 -0.5557060000
C  -3.6376150000 -1.8621390000 -0.1470000000
C  -4.3646440000  0.3411960000  0.5123540000
C  -3.1742040000  3.5535980000 -2.2005930000
H  -3.7891510000  1.4995730000 -2.0621530000
C  -1.1643250000  4.1467620000 -1.0050670000
H  -0.2190440000  2.5457670000  0.0844040000
C  -4.8583510000 -2.3885820000  0.2594460000
H  -2.8696090000 -2.5274200000 -0.5330800000
C  -5.5854790000 -0.1899860000  0.9242750000
H  -4.1787850000  1.4065760000  0.6154600000
C  -2.2295630000  4.5090810000 -1.8232980000
H  -4.0056380000  3.8332570000 -2.8418390000
H  -0.4180130000  4.8798730000 -0.7121070000
C  -5.8371870000 -1.5527610000  0.7953640000
H  -5.0426730000 -3.4551620000  0.1649560000
H  -6.3401860000  0.4667360000  1.3481980000
H  -2.3268530000  5.5339620000 -2.1709230000
H  -6.7895280000 -1.9648000000  1.1169130000
C  -1.4732770000  0.0974690000  2.8497760000
H  -2.5001170000  0.0746740000  2.4820850000
C  -0.6961270000  1.2390230000  2.5223140000
H  -1.1587050000  2.0680060000  1.9918110000
H   0.1143490000  1.5340930000  3.1867680000
C  -1.2778160000 -0.6700080000  4.1321770000
H  -1.9157100000 -0.2581960000  4.9287490000
H  -0.2371400000 -0.6162540000  4.4690550000
H  -1.5375490000 -1.7277920000  4.0158010000
