68
LPP2 3ea; extracted from final Gaussian last_standard_orientation
C   1.1696790000  0.0918790000 -2.3723740000
H   1.1049060000 -0.9422930000 -2.7316020000
H   1.9872450000  0.5837250000 -2.9130530000
C  -0.1470440000  0.8175300000 -2.6553370000
H  -0.1363750000  1.8000180000 -2.1667070000
H  -0.1918060000  1.0171390000 -3.7331730000
C  -1.4076460000  0.0376100000 -2.2742060000
H  -1.3412680000 -0.9863620000 -2.6638220000
H  -2.2902890000  0.4876330000 -2.7450700000
P   1.5998880000  0.0533900000 -0.5771430000
P  -1.7179810000 -0.1686090000 -0.4624260000
Rh  0.0399070000 -1.0604050000  0.7590720000
H  -1.0574110000 -1.8635730000  1.5810830000
C   0.3668740000 -0.1686340000  2.3756530000
O   0.5464570000  0.3220370000  3.4106210000
C   3.2850000000 -0.6518420000 -0.5559170000
C   4.0102700000 -0.5550070000  0.6398280000
C   3.8434250000 -1.3427010000 -1.6337200000
C   5.2736620000 -1.1218770000  0.7465420000
H   3.5754030000 -0.0352210000  1.4906350000
C   5.1088130000 -1.9190250000 -1.5218780000
H   3.3006940000 -1.4364390000 -2.5693260000
C   5.8261800000 -1.8077380000 -0.3358100000
H   5.8268400000 -1.0350140000  1.6775110000
H   5.5317380000 -2.4542900000 -2.3675780000
H   6.8117550000 -2.2566820000 -0.2505700000
C   1.9153210000  1.8299980000 -0.2646440000
C   0.9992560000  2.5744160000  0.4816710000
C   3.0270270000  2.4729940000 -0.8237350000
C   1.1822020000  3.9444260000  0.6588040000
H   0.1397950000  2.0797470000  0.9214820000
C   3.2129370000  3.8384680000 -0.6395160000
H   3.7544060000  1.8995100000 -1.3934040000
C   2.2881440000  4.5770060000  0.0995670000
H   0.4562350000  4.5101610000  1.2360080000
H   4.0815120000  4.3285100000 -1.0710700000
H   2.4353160000  5.6443160000  0.2409510000
C  -2.2996300000  1.4903090000  0.0718550000
C  -2.5060230000  1.6784470000  1.4450530000
C  -2.4979890000  2.5715710000 -0.7912270000
C  -2.8963500000  2.9160450000  1.9421370000
H  -2.3398330000  0.8465640000  2.1252910000
C  -2.8759480000  3.8174010000 -0.2914430000
H  -2.3512670000  2.4596270000 -1.8608860000
C  -3.0740080000  3.9937420000  1.0740640000
H  -3.0515080000  3.0432520000  3.0099560000
H  -3.0129120000  4.6509390000 -0.9750160000
H  -3.3649640000  4.9657230000  1.4626970000
C  -3.3030740000 -1.0966870000 -0.5341270000
C  -3.3617420000 -2.4230460000 -0.1026640000
C  -4.4564210000 -0.4980740000 -1.0556620000
C  -4.5494060000 -3.1452130000 -0.2003330000
H  -2.4715010000 -2.8756030000  0.3235090000
C  -5.6427770000 -1.2175530000 -1.1497780000
H  -4.4319460000  0.5419110000 -1.3724800000
C  -5.6904620000 -2.5445740000 -0.7242690000
H  -4.5829770000 -4.1762480000  0.1413390000
H  -6.5336670000 -0.7406560000 -1.5495480000
H  -6.6185790000 -3.1052610000 -0.7948720000
C   1.1703420000 -2.9075250000  0.8654890000
H   2.2276750000 -2.6615540000  0.7702720000
C   0.4001260000 -2.9155620000 -0.3253040000
H   0.8935840000 -2.7532780000 -1.2829340000
H  -0.4764330000 -3.5582130000 -0.3887740000
C   0.8600920000 -3.8218630000  2.0228430000
H   1.4035410000 -4.7728270000  1.9173540000
H  -0.2107620000 -4.0463510000  2.0721470000
H   1.1517850000 -3.3782340000  2.9806140000
