80
LPP7 3ea; extracted from final Gaussian last_standard_orientation
Rh -0.3106210000 -0.9115770000 -1.2937280000
C  -0.4246890000  0.3004110000 -2.7265220000
O  -0.5161870000  0.9948690000 -3.6512060000
H   0.6840200000 -1.7716060000 -2.1899260000
P  -1.7766700000  0.2893180000  0.0817640000
C  -1.5182740000  2.1230560000  0.0462840000
C  -0.3359280000  2.6288130000  0.8528390000
C   1.0694790000  2.1699350000  0.4552580000
C   1.5753950000  0.9010190000  1.1309040000
P   1.5925080000 -0.5386270000 -0.0304210000
H  -1.3752150000  2.4063060000 -1.0017550000
H  -2.4226660000  2.6269010000  0.4056270000
H  -0.4881740000  2.4021510000  1.9200280000
H   1.1393220000  2.0954160000 -0.6424210000
H   0.9491720000  0.6556500000  1.9947820000
H   2.5913710000  1.0892110000  1.4937180000
O  -0.2692600000  4.0319570000  0.6642170000
O   1.8513450000  3.2570170000  0.9232110000
C   1.0972370000  4.4393740000  0.7301630000
C   1.3138250000  5.3358400000  1.9330820000
C   1.4605840000  5.1063790000 -0.5867430000
H   0.9994250000  4.8122790000  2.8402790000
H   0.7292020000  6.2544630000  1.8295810000
H   2.3716900000  5.5997750000  2.0249330000
H   1.3419770000  4.3980040000 -1.4122180000
H   2.4985510000  5.4515530000 -0.5640140000
H   0.8060700000  5.9637340000 -0.7704300000
C  -3.5271380000  0.1552480000 -0.4305370000
C  -4.4313600000 -0.6661680000  0.2489110000
C  -5.7291070000 -0.8310970000 -0.2314140000
C  -6.1355600000 -0.1787320000 -1.3914700000
C  -5.2362580000  0.6357430000 -2.0783590000
C  -3.9382640000  0.7951310000 -1.6065690000
C  -1.8456850000 -0.0668770000  1.8777910000
C  -1.0281300000 -1.0636280000  2.4141500000
C  -1.0245790000 -1.3156100000  3.7846450000
C  -1.8453420000 -0.5744500000  4.6291420000
C  -2.6722950000  0.4181300000  4.1018070000
C  -2.6743760000  0.6706100000  2.7343220000
C   2.1649450000 -1.9118780000  1.0387270000
C   2.4108970000 -1.7867550000  2.4093350000
C   2.8067020000 -2.8942900000  3.1590250000
C   2.9729690000 -4.1320780000  2.5461090000
C   2.7396730000 -4.2629750000  1.1769540000
C   2.3309340000 -3.1637390000  0.4318660000
C   3.1317100000 -0.1568840000 -0.9640820000
C   4.3729260000 -0.1675840000 -0.3150780000
C   5.5322970000  0.1667900000 -1.0049560000
C   5.4663170000  0.5194500000 -2.3527070000
C   4.2376890000  0.5308450000 -3.0051900000
C   3.0759970000  0.1905620000 -2.3142390000
H  -4.1245290000 -1.1762260000  1.1574500000
H  -6.4225150000 -1.4723610000  0.3056840000
H  -7.1479910000 -0.3073420000 -1.7636800000
H  -5.5440050000  1.1434480000 -2.9882050000
H  -3.2390170000  1.4109180000 -2.1661710000
H  -0.3849710000 -1.6354040000  1.7517520000
H  -0.3750750000 -2.0893720000  4.1844960000
H  -1.8445420000 -0.7674790000  5.6983400000
H  -3.3154930000  0.9972900000  4.7584340000
H  -3.3275200000  1.4404150000  2.3306730000
H   2.2948260000 -0.8283780000  2.9056350000
H   2.9910450000 -2.7833070000  4.2243190000
H   3.2826270000 -4.9934210000  3.1313730000
H   2.8688430000 -5.2263950000  0.6914370000
H   2.1285580000 -3.2657740000 -0.6316550000
H   4.4348970000 -0.4517760000  0.7328670000
H   6.4899170000  0.1497020000 -0.4916740000
H   6.3731190000  0.7798160000 -2.8917830000
H   4.1789860000  0.7991070000 -4.0565050000
H   2.1191470000  0.1834350000 -2.8245600000
C  -1.0768930000 -2.8427410000 -0.6426250000
H  -1.5895000000 -2.7831970000  0.3152030000
H  -0.3212170000 -3.6245260000 -0.6952650000
C  -1.7567440000 -2.4456140000 -1.8194030000
H  -2.7558370000 -2.0264690000 -1.6979620000
C  -1.5431290000 -3.1302630000 -3.1447790000
H  -1.6828210000 -2.4420440000 -3.9851280000
H  -0.5325340000 -3.5455820000 -3.2168460000
H  -2.2609110000 -3.9548880000 -3.2684060000
