80
LPP14 3ea; extracted from final Gaussian last_standard_orientation
Rh -0.0063550000 -0.2697930000 -1.6128290000
H  -1.0676500000 -0.3738410000 -2.7749690000
C   0.3447560000 -2.0444020000 -2.0815480000
O   0.4797450000 -3.1465520000 -2.4190000000
C   0.9251580000  1.2481220000 -2.8792250000
C  -0.0813630000  1.8451130000 -2.0850040000
H  -1.0314760000  2.1183290000 -2.5420450000
H   0.1943400000  2.4536600000 -1.2267320000
P   1.8132350000 -0.1162870000 -0.0864160000
C   2.1506170000  1.5817450000  0.5086470000
C   1.7829440000 -1.0944160000  1.4628920000
C   3.4417370000 -0.6201230000 -0.7701390000
C   1.0863860000  2.1966270000  1.1515410000
C   3.3055310000  2.3409460000  0.2846200000
C   2.1552300000 -0.5667790000  2.7019520000
C   1.4205150000 -2.4417160000  1.3746110000
C   3.5739930000 -0.8887600000 -2.1344640000
C   4.5606290000 -0.7489350000  0.0632100000
O  -0.0241660000  1.4342890000  1.4221730000
C   1.0834880000  3.5426630000  1.5191160000
C   3.3442030000  3.6727730000  0.6900170000
H   4.1617690000  1.8913700000 -0.2071830000
C   2.1693330000 -1.3771140000  3.8345330000
H   2.4376270000  0.4788100000  2.7845230000
C   1.4447620000 -3.2506850000  2.5046440000
H   1.1136750000 -2.8565320000  0.4189330000
C   4.8064330000 -1.2701120000 -2.6612150000
H   2.6994370000 -0.8068990000 -2.7735060000
C   5.7906520000 -1.1253670000 -0.4645160000
H   4.4647830000 -0.5637890000  1.1300230000
C  -1.2072510000  2.1036990000  1.2185430000
N  -0.1038650000  4.0443850000  2.0663150000
C   2.2416470000  4.2828330000  1.2905240000
H   4.2423110000  4.2588170000  0.5191040000
C   1.8184070000 -2.7204470000  3.7373140000
H   2.4573990000 -0.9554390000  4.7938250000
H   1.1544870000 -4.2938640000  2.4238980000
C   5.9156880000 -1.3855200000 -1.8290230000
H   4.8954830000 -1.4815340000 -3.7232550000
H   6.6517430000 -1.2240250000  0.1908300000
C  -1.2869490000  3.4414030000  1.6132090000
C  -2.2544060000  1.4170450000  0.6216670000
H  -0.1441510000  5.0494760000  2.1681050000
H   2.2783380000  5.3325490000  1.5700870000
H   1.8288170000 -3.3522110000  4.6213210000
H   6.8762620000 -1.6852820000 -2.2391200000
C  -2.5148240000  4.0869420000  1.5026870000
P  -1.8701220000 -0.2051660000 -0.1689270000
C  -3.4856560000  2.0838400000  0.5282500000
C  -3.6085630000  3.3929020000  0.9833560000
H  -2.6131770000  5.1243700000  1.8121630000
C  -3.5054650000 -0.5467810000 -0.9423730000
C  -1.8851970000 -1.4028270000  1.2152590000
H  -4.3390990000  1.5819410000  0.0860220000
H  -4.5678720000  3.8966880000  0.9099230000
C  -3.7488930000 -0.1104330000 -2.2486350000
C  -4.5465280000 -1.1504230000 -0.2273190000
C  -1.8749940000 -1.0337450000  2.5604730000
C  -1.9018400000 -2.7633090000  0.8798310000
C  -5.0013710000 -0.2804820000 -2.8315970000
H  -2.9467360000  0.3601450000 -2.8095730000
C  -5.7964260000 -1.3286450000 -0.8140340000
H  -4.3806500000 -1.4817540000  0.7931650000
C  -1.8856880000 -2.0098620000  3.5552570000
H  -1.8654450000  0.0159280000  2.8373060000
C  -1.9401180000 -3.7335170000  1.8728720000
H  -1.8959630000 -3.0591290000 -0.1669560000
C  -6.0271390000 -0.8949180000 -2.1174390000
H  -5.1724110000  0.0620300000 -3.8485400000
H  -6.5922480000 -1.8061190000 -0.2487440000
C  -1.9283200000 -3.3581310000  3.2159120000
H  -1.8671650000 -1.7105480000  4.5996160000
H  -1.9683430000 -4.7847480000  1.5987260000
H  -7.0026310000 -1.0359000000 -2.5748590000
H  -1.9461680000 -4.1161090000  3.9942450000
H   1.9547810000  1.4068070000 -2.5525020000
C   0.7819410000  1.0566710000 -4.3665660000
H   1.3339490000  0.1790370000 -4.7211970000
H  -0.2687330000  0.9198100000 -4.6424790000
H   1.1680480000  1.9325830000 -4.9093600000
