69
LPP10 3ea; extracted from final Gaussian last_standard_orientation
P  -2.0026990000  0.0244490000 -0.3399940000
Rh -0.0195410000 -0.3832430000  0.9569320000
H  -1.2078170000 -0.6459480000  1.9667690000
C   0.5049460000  0.8700460000  2.2342910000
O   0.7820120000  1.5570760000  3.1281710000
C   3.2879980000 -1.1793320000 -0.4354740000
C   3.7851960000 -1.7669320000 -1.6008720000
C   3.8721860000 -1.4941390000  0.7979080000
C   4.8379550000 -2.6771300000 -1.5320160000
H   3.3615450000 -1.4917590000 -2.5630450000
C   4.9315500000 -2.3924300000  0.8624890000
H   3.4991970000 -1.0224790000  1.7047630000
C   5.4094660000 -2.9923350000 -0.3021680000
H   5.2173720000 -3.1325400000 -2.4425500000
H   5.3828870000 -2.6270530000  1.8223560000
H   6.2318840000 -3.7002800000 -0.2503230000
C   2.7791660000  1.6221440000 -0.2281720000
C   2.0387990000  2.7415020000  0.1684910000
C   4.1482330000  1.7613740000 -0.4766710000
C   2.6569580000  3.9796070000  0.3132720000
H   0.9745970000  2.6350490000  0.3615700000
C   4.7663670000  2.9988950000 -0.3214460000
H   4.7329910000  0.9011810000 -0.7887970000
C   4.0229840000  4.1089590000  0.0726980000
H   2.0715160000  4.8411690000  0.6218880000
H   5.8320430000  3.0951120000 -0.5100470000
H   4.5081410000  5.0734590000  0.1945640000
C  -2.9213780000  1.5841850000 -0.0458790000
C  -2.4370830000  2.5029140000  0.8864800000
C  -4.0847000000  1.8813120000 -0.7653590000
C  -3.1051900000  3.7072030000  1.0993720000
H  -1.5344760000  2.2639950000  1.4423550000
C  -4.7482380000  3.0848990000 -0.5552560000
H  -4.4709870000  1.1676100000 -1.4882400000
C  -4.2589990000  3.9993360000  0.3779950000
H  -2.7227850000  4.4150180000  1.8297210000
H  -5.6499710000  3.3104420000 -1.1180120000
H  -4.7809110000  4.9381110000  0.5422810000
C  -3.3172270000 -1.2460270000 -0.2841810000
C  -3.6589610000 -1.8414910000  0.9343780000
C  -3.9967050000 -1.6297680000 -1.4448790000
C  -4.6683360000 -2.7970310000  0.9917120000
H  -3.1232150000 -1.5583900000  1.8371380000
C  -4.9994690000 -2.5946060000 -1.3878420000
H  -3.7338710000 -1.1695510000 -2.3944180000
C  -5.3382260000 -3.1780550000 -0.1697230000
H  -4.9271630000 -3.2508440000  1.9443600000
H  -5.5171570000 -2.8886490000 -2.2968360000
H  -6.1206690000 -3.9305130000 -0.1250490000
C   0.6540810000 -2.3682190000  1.6411130000
C  -0.1260280000 -2.5224740000  0.4827710000
H  -1.1454910000 -2.8963680000  0.5603930000
H   0.3585150000 -2.7046490000 -0.4733390000
P   1.9182840000  0.0221330000 -0.4661240000
C  -1.4684810000  0.1242380000 -2.0682420000
C  -0.8163180000 -1.0530940000 -2.5189770000
C  -0.7922160000  1.3416910000 -2.3374570000
C   0.5616150000 -1.0652560000 -2.5661950000
H  -1.3495020000 -2.0010960000 -2.5405140000
C   0.5858760000  1.3274990000 -2.3824440000
H  -1.3112990000  2.2905640000 -2.2217460000
C   1.2648210000  0.1000280000 -2.1620340000
H   1.0732390000 -2.0222740000 -2.6392130000
H   1.1265700000  2.2675650000 -2.3087050000
H   1.7338770000 -2.4132490000  1.5195490000
C   0.1698190000 -2.7707350000  3.0091020000
H   0.5768680000 -2.1240850000  3.7934440000
H  -0.9225990000 -2.7283990000  3.0710660000
H   0.4833740000 -3.8011960000  3.2323590000
