80
LPP13 3ea; extracted from final Gaussian last_standard_orientation
H  -5.4204530000 -0.4043760000 -3.3215370000
H  -3.4239090000  0.6508110000 -2.3347680000
H  -0.1577830000  1.3631910000 -2.0092210000
H  -0.2378990000  3.6413810000 -2.9904530000
H  -3.5202490000  4.6301670000 -0.3974340000
H  -3.4326450000  2.3636430000  0.5784330000
H   1.6883000000 -0.0837080000 -2.9841010000
H   3.2991590000  0.4405790000 -4.7977320000
H   6.3791600000  1.0525180000 -1.8630090000
H   4.7639660000  0.5501260000 -0.0620790000
H   3.0806580000 -2.7034020000  0.0632880000
C  -5.0206070000 -0.7852020000 -2.3858510000
C  -3.8931750000 -0.1875200000 -1.8283890000
C  -1.7896570000  1.7122080000 -0.6601090000
C  -0.8952510000  2.0827280000 -1.6651050000
C  -0.9441800000  3.3626190000 -2.2134110000
C  -1.8874080000  4.2794890000 -1.7611680000
C  -2.7832360000  3.9164000000 -0.7553210000
C  -2.7348220000  2.6404320000 -0.2072100000
C   3.1104470000  0.2153750000 -1.4067000000
C   2.7128160000  0.1849520000 -2.7448390000
C   3.6216980000  0.4729220000 -3.7606160000
C   4.9409710000  0.7875230000 -3.4463020000
C   5.3490760000  0.8134670000 -2.1133520000
C   4.4400450000  0.5299310000 -1.0991400000
C   2.9487570000 -0.8728870000  1.1893800000
C   4.6110510000 -2.1510000000  3.0472250000
C   4.2256260000 -2.8129280000  1.8819560000
C   3.3953130000 -2.1808690000  0.9638350000
H  -3.5914470000 -2.1291030000  0.9457930000
H  -5.5834860000 -3.1760840000 -0.0425720000
H   3.0192160000  0.8060700000  2.5379910000
H   4.4671930000 -0.3284690000  4.1844170000
C  -3.3599490000 -0.6619080000 -0.6254760000
C  -3.9807190000 -1.7489380000  0.0054300000
C  -5.1115080000 -2.3390610000 -0.5496290000
C  -5.6335840000 -1.8607590000 -1.7493500000
C   3.3457990000 -0.2131420000  2.3538750000
C   4.1686000000 -0.8523830000  3.2802150000
H  -4.2492580000  0.0863740000  1.6847610000
H  -2.6765320000  0.6911380000  5.6273780000
H  -4.6161830000  0.3743970000  4.0974060000
H   0.4085840000  5.1015710000  1.7203550000
H   2.8099290000  2.6505780000 -0.8568540000
H   2.0813810000  4.8889140000 -0.1073360000
C  -3.3956720000  0.2447360000  2.3356650000
C  -2.1076860000  0.2731540000  1.7855000000
C  -1.0405710000  0.5069940000  2.6652790000
C  -1.2341590000  0.6404550000  4.0352440000
C  -2.5218610000  0.5838570000  4.5578260000
C  -3.6048810000  0.4022720000  3.7027490000
C   0.6658850000  1.7339940000  1.5934160000
C   0.2357880000  2.9846600000  2.0190620000
C   0.7466020000  4.1208540000  1.3982050000
C   1.6822710000  4.0016840000  0.3751130000
C   2.0980040000  2.7405050000 -0.0427000000
C   1.5883100000  1.5836750000  0.5517490000
O   0.2447700000  0.5660130000  2.1838160000
H   1.1892070000 -2.3466750000 -1.1970340000
C  -0.4875440000 -1.3371930000 -2.5045630000
O  -0.7864120000 -1.3958440000 -3.6241070000
P  -1.7633120000 -0.0023220000 -0.0046700000
P   1.8731570000 -0.1094830000 -0.0866030000
Rh  0.0237980000 -1.3949070000 -0.7001680000
C  -0.0430150000 -2.6361850000  1.0873790000
C  -0.8128200000 -3.2527270000  0.0772450000
H  -0.5288550000 -2.1042370000  1.9031290000
H   0.9378880000 -3.0369440000  1.3351720000
H  -1.8943870000 -3.1403780000  0.1188680000
C  -0.3690690000 -4.5140760000 -0.6187560000
H  -0.7147840000 -4.5495140000 -1.6571670000
H   0.7229090000 -4.5972850000 -0.6258260000
H  -0.7740030000 -5.3976040000 -0.1030020000
H   5.2532030000 -2.6470660000  3.7698360000
H   5.6530870000  1.0053900000 -4.2376150000
H  -6.5142370000 -2.3241260000 -2.1850450000
H  -1.9246670000  5.2782900000 -2.1874980000
H  -0.3671090000  0.7940090000  4.6702350000
H  -0.4919340000  3.0648420000  2.8202090000
H   4.5663850000 -3.8271160000  1.6917900000
