111
LPP15 3ea; extracted from final Gaussian last_standard_orientation
Rh  0.0916550000 -1.6548260000 -0.4815080000
H  -1.0990370000 -2.6439200000 -0.7856310000
C   0.3982910000 -2.7695270000  0.9868820000
O   0.5281390000 -3.5298120000  1.8570480000
C   0.2129710000 -1.3190270000 -2.6090930000
H  -0.7447590000 -1.3767760000 -3.1251140000
C   0.8816820000 -2.5287480000 -2.2813100000
H   1.9664900000 -2.5063490000 -2.2303690000
P  -1.8870320000 -0.3815150000  0.0081320000
C  -1.9737820000  1.3993750000  0.4870830000
C  -1.0542610000  2.2647220000 -0.1050920000
C  -2.9304380000  1.9915100000  1.3216160000
O  -0.0635520000  1.6908800000 -0.8544130000
C  -1.0801740000  3.6544050000  0.0249680000
C  -2.9502770000  3.3673630000  1.5276690000
H  -3.6704230000  1.3762780000  1.8179980000
C   1.1612960000  2.2909750000 -0.7551750000
C  -0.0946330000  4.4427050000 -0.8321930000
C  -2.0431660000  4.1980050000  0.8708970000
H  -3.6958450000  3.8001990000  2.1884330000
C   1.2277650000  3.6867920000 -0.7834720000
C   2.2738560000  1.4665940000 -0.5738440000
C  -0.6144890000  4.4400890000 -2.2857610000
C   0.0527440000  5.8853940000 -0.3592610000
H  -2.0973750000  5.2719400000  1.0186010000
C   2.4891550000  4.2745030000 -0.7557460000
P   2.0402850000 -0.2883840000 -0.0349340000
C   3.5261550000  2.0999610000 -0.5963640000
H  -0.7279010000  3.4193210000 -2.6629910000
H   0.0879190000  4.9718110000 -2.9371480000
H  -1.5888610000  4.9382670000 -2.3383670000
H   0.7374150000  6.4367340000 -1.0108600000
H   0.4297480000  5.9391100000  0.6676200000
H  -0.9105700000  6.4026740000 -0.4039990000
C   3.6334360000  3.4818580000 -0.7042330000
H   2.5877480000  5.3551050000 -0.7782750000
H   4.4341750000  1.5133120000 -0.5075160000
H   4.6149860000  3.9466310000 -0.7139160000
H   0.7827190000 -0.4186860000 -2.8354070000
C   0.3417810000 -3.8765560000 -2.6893590000
H   0.6213440000 -4.6597860000 -1.9761400000
H  -0.7517600000 -3.8618070000 -2.7530500000
H   0.7342420000 -4.1684060000 -3.6753060000
C  -2.9480960000 -0.3255260000 -1.5351440000
C  -3.4076660000 -1.7412120000 -1.9526000000
C  -4.1169180000  0.6634220000 -1.5887490000
H  -2.2154780000  0.0210140000 -2.2779490000
H  -2.5817980000 -2.2415050000 -2.4682670000
H  -3.6290010000 -2.3647980000 -1.0787640000
C  -4.6369290000 -1.6940520000 -2.8689640000
C  -4.6037770000  0.8156260000 -3.0397840000
H  -3.8239880000  1.6421670000 -1.1993250000
H  -4.9384130000  0.3154780000 -0.9523610000
C  -4.5418410000 -0.5085470000 -3.8216460000
H  -4.7203480000 -2.6384100000 -3.4194870000
H  -5.5537910000 -1.6040180000 -2.2698520000
H  -5.6315330000  1.1994010000 -3.0296110000
H  -3.9953450000  1.5736270000 -3.5490170000
H  -5.3353240000 -0.5446940000 -4.5768290000
H  -3.5922140000 -0.5780040000 -4.3701800000
C  -2.8628850000 -1.2880490000  1.3135980000
C  -2.2443430000 -1.0425590000  2.7078340000
C  -4.3913530000 -1.2036980000  1.3784670000
H  -2.6278560000 -2.3259610000  1.0386540000
H  -1.3046310000 -1.6002080000  2.7769640000
H  -1.9867350000  0.0142150000  2.8412260000
C  -3.1955430000 -1.4762950000  3.8326770000
C  -4.9277800000 -2.3646800000  2.2343530000
H  -4.8392070000 -1.2515010000  0.3830330000
H  -4.7121910000 -0.2496570000  1.8106640000
C  -3.9990990000 -2.7021510000  3.4150990000
H  -2.6213290000 -1.6736870000  4.7452680000
H  -3.8874320000 -0.6578420000  4.0752740000
H  -5.9265830000 -2.1010920000  2.6036810000
H  -5.0553430000 -3.2522390000  1.6019350000
H  -4.5824270000 -3.0937240000  4.2561580000
H  -3.2995690000 -3.4992390000  3.1294360000
C   3.6981050000 -1.0120450000 -0.4847630000
C   3.8051290000 -2.4823230000 -0.0361300000
C   4.0976770000 -0.8688670000 -1.9571150000
H   4.4329140000 -0.4391840000  0.0960780000
H   4.0152730000 -2.5115710000  1.0409840000
H   2.8456990000 -2.9918790000 -0.1810840000
C   4.9093750000 -3.2238540000 -0.8059120000
C   5.5953890000 -1.1787580000 -2.1125390000
H   3.8791100000  0.1331650000 -2.3398420000
H   3.5111970000 -1.5587350000 -2.5709660000
C   6.0618710000 -2.2848990000 -1.1475940000
H   5.2603800000 -4.0797830000 -0.2183960000
H   4.4976570000 -3.6381460000 -1.7363040000
H   5.7910620000 -1.4770350000 -3.1497050000
H   6.1811270000 -0.2669110000 -1.9372820000
H   6.9015410000 -2.8383880000 -1.5831470000
H   6.4397130000 -1.8387080000 -0.2172170000
C   2.2159650000 -0.0863940000  1.8190390000
C   3.5688540000  0.4160230000  2.3473240000
C   1.0829800000  0.7736290000  2.3772540000
H   2.0564600000 -1.1135340000  2.1758040000
H   4.2790160000 -0.4198120000  2.3747650000
H   3.9889780000  1.1714880000  1.6739870000
C   3.4411800000  1.0308060000  3.7528960000
C   0.9713320000  0.5989980000  3.8992350000
H   0.1350910000  0.5145120000  1.8979250000
H   1.2831750000  1.8241430000  2.1268670000
C   2.3396720000  0.3432800000  4.5513030000
H   4.4045910000  0.9685040000  4.2721640000
H   3.2036300000  2.0998820000  3.6686750000
H   0.5118160000  1.4982120000  4.3283250000
H   0.2945700000 -0.2343630000  4.1239560000
H   2.3372720000  0.6862540000  5.5923040000
H   2.5447930000 -0.7355680000  4.5836030000
