87
LPP12 3ea; extracted from final Gaussian last_standard_orientation
H   5.5080780000 -3.6310940000 -0.2625550000
H   3.5824340000 -2.5015500000  0.7818220000
H   0.2089230000  0.0963880000  2.2332190000
H   0.5105440000  0.4197050000  4.6715570000
H   4.7695310000  0.1355750000  4.1647520000
H   4.4656990000 -0.1598950000  1.7341110000
H  -1.1081300000 -1.7832320000  2.5584360000
H  -2.3546670000 -2.7811400000  4.4442230000
H  -6.0516690000 -2.0538740000  2.3771400000
H  -4.8051520000 -1.0290980000  0.5074270000
H  -4.5803340000 -2.9956490000 -3.2416410000
H  -3.1239220000 -2.7700250000 -1.2651310000
C   5.1101830000 -2.7245400000 -0.7099460000
C   4.0295140000 -2.0828780000 -0.1159520000
C   2.3117680000 -0.0552430000  1.8223890000
C   1.2067760000  0.1110980000  2.6630210000
C   1.3791520000  0.2912070000  4.0314460000
C   2.6614050000  0.2962840000  4.5759810000
C   3.7673440000  0.1326970000  3.7447350000
C   3.5961610000 -0.0343700000  2.3729740000
C  -2.8691440000 -1.3199660000  1.4122990000
C  -2.1929240000 -1.8234950000  2.5279290000
C  -2.8958490000 -2.3920830000  3.5861080000
C  -4.2852490000 -2.4760710000  3.5362850000
C  -4.9681360000 -1.9862240000  2.4252260000
C  -4.2657830000 -1.4088430000  1.3705460000
C  -3.0434450000 -0.6164300000 -1.3492540000
C  -4.6773910000 -0.8740750000 -3.6164270000
C  -4.2680810000 -2.0076960000 -2.9139760000
C  -3.4521730000 -1.8804730000 -1.7965510000
H   3.6685770000  0.4919460000 -2.3057010000
H   5.5764270000 -0.6577410000 -3.3642530000
H  -3.1691720000  1.5041890000 -1.7222680000
H  -4.5857800000  1.2739390000 -3.7219810000
C   3.5084980000 -0.9069130000 -0.6716340000
C   4.0726270000 -0.4074220000 -1.8496910000
C   5.1499880000 -1.0576960000 -2.4484930000
C   5.6742580000 -2.2134250000 -1.8784680000
C  -3.4652680000  0.5134820000 -2.0532050000
C  -4.2718090000  0.3836440000 -3.1835840000
H   4.2723320000  1.7027090000 -0.0884560000
H   2.2711120000  5.4811420000 -0.3311140000
H   4.3529410000  4.1692000000 -0.1486550000
H  -2.4837450000  5.0881630000  1.1585960000
H  -3.8155510000  1.0648060000  1.8069860000
H  -4.0291690000  3.4875330000  2.2222230000
C   3.3600780000  2.2691730000 -0.2501990000
C   2.1434380000  1.5898530000 -0.3992170000
C   1.0027900000  2.3627050000 -0.5979490000
C   0.9999690000  3.7594310000 -0.5411370000
C   2.2254010000  4.3978790000 -0.3802850000
C   3.4026770000  3.6567260000 -0.2659680000
C  -1.2174690000  2.1909940000 -0.0218850000
C  -1.3332450000  3.5716950000  0.1533080000
C  -2.3586410000  4.0249550000  0.9790140000
C  -3.2359420000  3.1202540000  1.5775620000
C  -3.1155500000  1.7540690000  1.3455770000
C  -2.0920940000  1.2567400000  0.5305980000
C  -0.3577070000  4.4468250000 -0.6299880000
O  -0.1854190000  1.7086320000 -0.7807220000
H  -0.9447710000 -2.7294030000 -0.8134200000
C   0.6558080000 -2.8459790000  0.8575680000
O   0.9412650000 -3.6623360000  1.6311180000
P   1.9711730000 -0.1990060000  0.0221580000
P  -1.8852040000 -0.5233210000  0.0787520000
Rh  0.1316660000 -1.6283850000 -0.4620670000
C   0.0722560000 -1.0873200000 -2.5714130000
C   0.9348460000 -2.1931870000 -2.4139670000
H   0.4762520000 -0.0858960000 -2.7097330000
H  -0.9214740000 -1.2376480000 -2.9902040000
H   2.0065360000 -2.0000660000 -2.4049070000
C   0.5737670000 -3.5726470000 -2.9016730000
H   0.9998430000 -4.3532790000 -2.2628470000
H  -0.5122650000 -3.7111940000 -2.9253660000
C  -0.8093660000  4.4701460000 -2.1061320000
H  -1.8044230000  4.9211960000 -2.1878890000
H  -0.1068480000  5.0604030000 -2.7047210000
H  -0.8529390000  3.4598170000 -2.5239170000
C  -0.3126960000  5.8758070000 -0.0999030000
H   0.3743200000  6.4853810000 -0.6949780000
H  -1.2987650000  6.3441400000 -0.1780410000
H   0.0080330000  5.9098400000  0.9466160000
H  -5.3078860000 -0.9738860000 -4.4955910000
H   6.5149430000 -2.7195810000 -2.3445190000
H  -4.8343830000 -2.9288790000  4.3572970000
H   2.7992950000  0.4262990000  5.6458290000
H   0.9595100000 -3.7295270000 -3.9201640000
