113
LPP22 3ea; extracted from final Gaussian last_input_orientation
P   1.8460730000  0.2470290000  0.5374730000
P  -1.6700910000  0.6026180000 -0.5633260000
O   2.7160680000  0.5240550000  1.9275410000
O   3.0869020000  0.2911930000 -0.5394340000
O   1.7258740000 -1.3629410000  0.8266470000
O  -2.6860660000 -4.6611710000  0.7570540000
O  -1.7583340000 -0.4691620000 -1.8079280000
O   3.0510940000 -2.1952010000 -3.8842120000
O  -2.4891040000 -0.1335550000  0.6454160000
O  -2.8834250000  1.5711170000 -1.1529900000
C   4.7254850000  1.6941990000  1.3801990000
C   3.4777020000  1.6644300000  2.0151140000
C   3.0223510000  2.7293720000  2.7850240000
C   3.8215480000  3.8582050000  2.9318340000
C   5.0666980000  3.9146410000  2.3072920000
C   5.5114720000  2.8415490000  1.5431350000
C   5.2037510000  0.5364590000  0.6032780000
C   4.3715510000 -0.1520280000 -0.2924080000
C   4.8498030000 -1.2088810000 -1.0590500000
C   6.1720410000 -1.6168820000 -0.9222620000
C   7.0143250000 -0.9640500000 -0.0249160000
C   6.5303000000  0.1023190000  0.7223630000
C  -0.1505170000 -2.3162970000 -0.3161480000
C   0.5640630000 -2.1059140000  0.8717350000
C   0.1845940000 -2.7213270000  2.0778390000
C  -0.9128260000 -3.5876380000  2.0312630000
C  -1.6126580000 -3.8312300000  0.8526490000
C  -1.2410820000 -3.1800990000 -0.3165060000
C   0.8828660000 -2.4545470000  3.4179590000
C  -3.1557450000 -5.2650810000  1.9426740000
C   0.2689070000 -1.7544560000 -1.6246320000
C  -0.5957150000 -0.9601040000 -2.3949510000
C  -0.3357790000 -0.6892760000 -3.7476800000
C   0.9034980000 -1.1091770000 -4.2495510000
C   1.8253790000 -1.7948580000 -3.4598490000
C   1.4848850000 -2.1557020000 -2.1611030000
C  -1.3656390000 -0.0319210000 -4.6775960000
C   3.4702870000 -1.7844930000 -5.1672230000
C  -4.7674580000  0.6693750000  0.7380220000
C  -3.8532170000 -0.3865650000  0.6327520000
C  -4.2778290000 -1.7083140000  0.6340990000
C  -5.6315000000 -2.0004800000  0.7590470000
C  -6.5594530000 -0.9697990000  0.8843900000
C  -6.1248420000  0.3494060000  0.8677350000
C  -4.3413610000  2.0765360000  0.6849080000
C  -3.4194340000  2.5019500000 -0.2794200000
C  -3.0845630000  3.8441460000 -0.4165760000
C  -3.6493770000  4.7848490000  0.4374470000
C  -4.5467590000  4.3811840000  1.4241060000
C  -4.8935440000  3.0406560000  1.5366910000
C   0.3816670000 -3.3997410000  4.5174320000
C   2.4046910000 -2.6542980000  3.3228180000
C   0.5475630000 -1.0218050000  3.8643960000
C  -2.6812180000 -0.8263270000 -4.6144170000
C  -0.8950800000 -0.0410760000 -6.1361630000
C  -1.6242170000  1.4305060000 -4.2915880000
H   2.0494500000  2.6541990000  3.2599890000
H   3.4689330000  4.6931600000  3.5301710000
H   5.6907500000  4.7971790000  2.4127340000
H   6.4762700000  2.8901380000  1.0456170000
H   4.1915300000 -1.6752110000 -1.7836340000
H   6.5419340000 -2.4440210000 -1.5213920000
H   8.0454140000 -1.2839250000  0.0930750000
H   7.1801540000  0.6103230000  1.4297420000
H  -1.2228320000 -4.0855720000  2.9385890000
H  -1.7950240000 -3.3612480000 -1.2317820000
H  -3.4603180000 -4.5123910000  2.6812470000
H  -2.3990000000 -5.9239410000  2.3868110000
H  -4.0233990000 -5.8597650000  1.6532960000
H   1.1461450000 -0.8992400000 -5.2818580000
H   2.1598310000 -2.7699820000 -1.5752820000
H   2.8434190000 -2.2223660000 -5.9544060000
H   4.4928700000 -2.1469660000 -5.2800540000
H   3.4588720000 -0.6912420000 -5.2600060000
H  -3.5462840000 -2.4981120000  0.5462000000
H  -5.9547860000 -3.0375350000  0.7561100000
H  -7.6185490000 -1.1903620000  0.9791170000
H  -6.8443770000  1.1610900000  0.9305100000
H  -2.3892680000  4.1411560000 -1.1917030000
H  -3.3811010000  5.8321030000  0.3339880000
H  -4.9782720000  5.1105970000  2.1029160000
H  -5.5937510000  2.7200840000  2.3030490000
H  -0.6817870000 -3.2561700000  4.7394300000
H   0.9341140000 -3.1901560000  5.4394750000
H   0.5488580000 -4.4526030000  4.2614600000
H   2.6379340000 -3.6662390000  2.9710910000
H   2.8454100000 -2.5351150000  4.3196960000
H   2.8795610000 -1.9373210000  2.6546460000
H   0.9051480000 -0.2744310000  3.1561530000
H   1.0197250000 -0.8140940000  4.8327060000
H  -0.5356870000 -0.8990830000  3.9756130000
H  -3.4101680000 -0.3860410000 -5.3050740000
H  -3.1125650000 -0.8154490000 -3.6113930000
H  -2.5178730000 -1.8684070000 -4.9126010000
H  -0.6934160000 -1.0558690000 -6.4975230000
H   0.0029570000  0.5697100000 -6.2849950000
H  -1.6852010000  0.3838720000 -6.7643560000
H  -0.6968630000  2.0129020000 -4.3179860000
H  -2.0697650000  1.5203500000 -3.3005640000
H  -2.3231330000  1.8777610000 -5.0089670000
Rh  0.2237350000  1.7207470000  0.0784820000
C  -0.6126420000  2.4154990000  1.6254510000
H   1.3995260000  2.6762880000  0.5392080000
O  -1.0032360000  2.8664960000  2.6127600000
C   0.1374690000  3.1713850000 -1.6019450000
C   1.0629270000  2.1638450000 -1.9101390000
H  -0.8452320000  3.0828450000 -2.0603210000
H   2.1274410000  2.3582020000 -1.8061160000
H   0.8085920000  1.3643690000 -2.5988270000
C   0.5434380000  4.5754860000 -1.2407470000
H   0.5504780000  5.2113000000 -2.1381780000
H   1.5467410000  4.5929700000 -0.8030330000
H  -0.1443750000  5.0269090000 -0.5182970000
