91
LPP20 3ea; extracted from final Gaussian last_standard_orientation
C  -5.5226500000 -1.0126160000 -1.5632940000
C  -6.0014120000  0.1934410000 -2.0646020000
C  -4.2574710000 -1.0759570000 -0.9833650000
C  -5.2047980000  1.3354490000 -1.9957170000
C  -1.5953630000  1.0299580000  3.8650470000
C  -2.2925360000  2.2326800000  3.9284160000
C  -1.4782140000  0.3586740000  2.6531980000
C  -3.4598790000  0.0672170000 -0.8848260000
C  -3.9440080000  1.2728010000 -1.4131460000
C  -2.8769030000  2.7532710000  2.7764330000
C  -2.0534420000  0.8760450000  1.4900480000
C   0.0506230000  4.9326710000  1.9593650000
C  -2.7622610000  2.0794430000  1.5652610000
C  -1.0611010000  0.9649070000 -2.5513150000
C   0.5687560000  4.8707760000  3.2714740000
C  -0.2642840000  1.6225980000 -3.4478180000
C   0.1346690000  3.8461710000  1.1236830000
C  -0.7684470000  0.9740160000 -1.1605780000
C   1.1600410000  3.7162810000  3.7212600000
C   0.8694100000  2.3483800000 -3.0126430000
C   0.7448080000  2.6400230000  1.5548620000
C   0.3806070000  1.6051250000 -0.7082280000
C   1.6838880000  3.0638670000 -3.9222940000
C   1.2610320000  2.5804270000  2.8817870000
C   1.2002560000  2.3411750000 -1.6265000000
C   0.8385160000  1.4946680000  0.7057560000
C   2.7833030000  3.7609790000 -3.4845180000
C   1.8646650000  1.3802580000  3.3185890000
C   2.3504480000  3.0593990000 -1.2103560000
C   1.4075910000  0.3130060000  1.1789120000
C   3.1149900000  3.7578210000 -2.1137010000
C   1.9323940000  0.2853530000  2.4962180000
C   1.8455910000 -1.2139730000 -2.5787510000
C   2.5566260000 -0.8690240000 -3.7256530000
C   2.2703190000 -0.7746560000 -1.3251770000
C   3.6992190000 -0.0814090000 -3.6270000000
C   3.4266660000  0.0099960000 -1.2326560000
C   4.1362600000  0.3539160000 -2.3768310000
C   2.5165590000 -2.3705740000  1.0305980000
C   3.7328430000 -2.7590300000  0.4613540000
C   2.1479470000 -2.9246210000  2.2650220000
C   4.5632000000 -3.6675540000  1.1158080000
C   2.9857900000 -3.8152260000  2.9262110000
C   4.1979950000 -4.1928970000  2.3507200000
H  -6.1278700000 -1.9122460000 -1.6317590000
H  -6.9856800000  0.2430090000 -2.5219120000
H  -3.8712280000 -2.0233090000 -0.6228450000
H  -1.1269700000  0.6196900000  4.7552260000
H  -5.5619940000  2.2762200000 -2.4054310000
H  -2.3775010000  2.7664400000  4.8707690000
H  -0.9032100000 -0.5563840000  2.5847290000
H  -0.4234380000  5.8460600000  1.6109980000
H  -1.9279190000  0.4187940000 -2.9082770000
H  -3.4194340000  3.6936140000  2.8181000000
H  -0.4995410000  1.5975170000 -4.5089910000
H   0.4960080000  5.7376670000  3.9222900000
H  -3.3181520000  2.1608810000 -1.4065380000
H  -0.2742530000  3.8974850000  0.1198730000
H  -3.2291950000  2.5001080000  0.6822560000
H   1.4184520000  3.0520050000 -4.9766790000
H   1.5588410000  3.6543210000  4.7309840000
H   3.3993570000  4.3115590000 -4.1899800000
H   2.2826120000  1.3344470000  4.3215950000
H   0.9467170000 -1.8157860000 -2.6513610000
H   2.6267500000  3.0551550000 -0.1619320000
H   2.2079200000 -1.2087910000 -4.6970280000
H   3.9877430000  4.3059210000 -1.7694750000
H   2.4098550000 -0.6171990000  2.8597920000
H   4.0355990000 -2.3596490000 -0.5005820000
H   4.2478920000  0.1992990000 -4.5217870000
H   3.7618520000  0.3638870000 -0.2608650000
H   5.0211220000  0.9784270000 -2.2950120000
H   1.1921650000 -2.6583490000  2.7039040000
H   5.5013490000 -3.9623370000  0.6533890000
H   2.6845550000 -4.2252790000  3.8864240000
H   4.8486250000 -4.8984800000  2.8599120000
P  -1.8196180000 -0.0708180000 -0.0669570000
P   1.3328000000 -1.2502690000  0.1769680000
Rh -0.8008350000 -2.2070380000 -0.0964950000
C  -1.2936240000 -2.4927380000 -1.8811440000
O  -1.6094950000 -2.7983440000 -2.9538620000
H  -0.0166640000 -3.5738820000 -0.2657930000
C  -1.1933340000 -3.1099310000  1.8617510000
C  -2.2989270000 -3.3282120000  1.0101480000
H  -1.2877370000 -2.4076750000  2.6851210000
H  -0.5100240000 -3.9359670000  2.0481760000
H  -3.1682650000 -2.6944150000  1.1911360000
C  -2.6329710000 -4.6850680000  0.4461260000
H  -3.1613450000 -4.6117460000 -0.5114810000
H  -1.7230620000 -5.2704470000  0.2789690000
H  -3.2784520000 -5.2446340000  1.1394770000
